\* Source Pyomo model name=unknown *\

min 
x1:
+601028.6464488783 x2
+2399609.5444849576 x3
+2993724.51305133 x4
+782678.602980521 x5
+1288751.5179322094 x6
+1493394.156172256 x7
+1617363.1724709857 x8
+1434112.571022062 x9
+515818.2080084461 x10
+601251.1842695511 x11
+806945.8418140562 x12
+1453772.3664564255 x13
+742802.4598880224 x14
+595543.8648556012 x15
+1338346.3247436243 x16
+2144828.1242137984 x17
+582269.300332494 x18
+7540429.27066525 x19
+501391.5522124791 x20
+6091968.2769162 x21
+640304.0735932618 x22
+2050960.8924393575 x23
+4826381.85622925 x24
+2090893.8630401525 x25
+1384769.5970385273 x26
+1050179.9784919617 x27
+1782660.2764680695 x28
+944961.0299750364 x29
+1382767.5547376021 x30
+397890.6794295428 x31
+666671.5596082913 x32
+1076577.0779083495 x33
+1087947.1469450057 x34
+1442160.2213462817 x35
+1254983.723985582 x36
+2378312.649343406 x37
+1209855.4879053673 x38
+880882.2289502781 x39
+498369.7423194973 x40
+614709.0362725349 x41
+1944594.0129846607 x42
+1341630.7996715147 x43
+4882069.620720217 x44
+421777.8907166261 x45
+487073.07429007225 x46
+1393304.1607735206 x47
+2582232.36907112 x48
+2380783.633987717 x49
+692251.3293217674 x50
+1946222.7032166892 x51
+2185784.86889114 x52
+2171413.4064407633 x53
+923738.1559040643 x54
+2190311.273138103 x55
+1064618.3952562422 x56
+1280319.4988752445 x57
+1636961.1979548382 x58
+1538317.2783760768 x59
+499761.70459038974 x60
+1568826.5071999237 x61
+1774197.798103268 x62
+910284.7703511174 x63
+806647.5769882181 x64
+1712644.1761245215 x65
+3177486.0547564616 x66
+755513.220329605 x67
+573947.9313410706 x68
+3520253.348973736 x69
+3993688.436443042 x70
+2759296.7722036033 x71
+2657067.33339538 x72
+1587749.633984703 x73
+1522786.2314807388 x74
+299730.1262217106 x75
+486788.216038906 x76
+1297208.116339841 x77
+1332131.1454749242 x78
+2772692.149157518 x79
+2105405.445074745 x80
+2536034.9941177145 x81
+644489.2104749947 x82
+430629.5490429691 x83
+1035773.4942759303 x84
+1031264.4256282093 x85
+421764.8159864367 x86
+492793.233297822 x87
+2099645.6184355803 x88
+446364.5963074261 x89
+1649078.4408581464 x90
+2915432.6979611493 x91
+3490519.323398151 x92
+2274506.0685291425 x93
+489687.18260680715 x94
+836833.6958598656 x95
+347146.5132530586 x96
+613114.8754207336 x97
+754790.5420381787 x98
+837273.0269349135 x99
+1293798.4001131258 x100
+344652.465967762 x101
+502724.17413705 x102
+460930.53249129746 x103
+954715.0975146755 x104
+598830.4677397083 x105
+444284.30148847355 x106
+796943.1639024919 x107
+916008.1113979971 x108
+806360.1137668199 x109
+1101313.218837613 x110
+1500065.8022908166 x111
+2171666.800868712 x112
+3720017.46659101 x113
+413557.32860120863 x114
+514626.03418458195 x115
+1202098.8658661556 x116
+600498.446973944 x117
+1115669.8908920183 x118
+3365897.909970895 x119
+1828707.7789967698 x120
+403384.27865278296 x121
+707538.2861558022 x122
+749852.679827957 x123
+2158587.3527438864 x124
+1164954.5404218815 x125
+335846.4354849125 x126
+823423.3984246546 x127
+977596.2570191317 x128
+907280.3989236103 x129
+575619.8393219428 x130
+425782.214281486 x131
+581325.2128132691 x132
+1036412.7317839911 x133
+589046.2736586452 x134
+623222.6328668132 x135
+337320.75478804606 x136
+817475.9956483387 x137
+561235.7767705776 x138
+215032.12556211796 x139
+438638.73656579736 x140
+949445.431143582 x141
+877836.0895039666 x142
+484012.6673972487 x143
+1534900.739594029 x144
+1877254.0740326683 x145
+459754.7795458011 x146
+346203.6512084596 x147
+1752548.693114073 x148
+676675.0131177718 x149
+381548.6531354131 x150
+1321892.7967952592 x151
+698193.6723145909 x152
+664153.693225466 x153
+1335812.7852422385 x154
+981638.203585144 x155
+144804.50772527847 x156
+889719.8227561641 x157
+1321174.9976617007 x158
+927615.1474465596 x159
+1171576.6329142007 x160
+1100447.1970013934 x161
+1162857.5815113024 x162
+2057153.3115427345 x163
+2175105.044159996 x164
+1039664.9039123874 x165
+1626983.0736038494 x166
+1396130.5412700847 x167
+1985774.8256430284 x168
+900902.9165244534 x169
+881884.2858832846 x170
+1109725.8394705318 x171
+822429.7082333395 x172
+959104.7518601805 x173
+1449247.9070012243 x174
+568107.3492112816 x175
+1024508.6299176791 x176
+1260600.4297854877 x177
+739086.571475657 x178
+889047.2220004456 x179
+1102242.8618402781 x180
+1201915.873725746 x181
+1467097.13135602 x182
+8500.0 x183
+19000.0 x184
+19000.0 x185
+19000.0 x186
+8500.0 x187
+19000.0 x188
+8500.0 x189
+19000.0 x190

s.t.

c_e_x191_:
+1 x2
+1 x3
+1 x4
+1 x5
+1 x6
+1 x7
+1 x8
+1 x9
+1 x10
+1 x11
+1 x12
+1 x13
+1 x14
+1 x15
+1 x16
+1 x17
+1 x18
+1 x19
+1 x20
+1 x21
+1 x22
+1 x23
+1 x24
+1 x25
+1 x26
+1 x27
+1 x28
+1 x29
+1 x30
+1 x31
+1 x32
+1 x33
+1 x34
+1 x35
+1 x36
+1 x37
+1 x38
+1 x39
+1 x40
+1 x41
+1 x42
+1 x43
+1 x44
+1 x45
+1 x46
+1 x47
+1 x48
+1 x49
+1 x50
+1 x51
+1 x52
+1 x53
+1 x54
+1 x55
+1 x56
+1 x57
+1 x58
+1 x59
+1 x60
+1 x61
+1 x62
+1 x63
+1 x64
+1 x65
+1 x66
+1 x67
+1 x68
+1 x69
+1 x70
+1 x71
+1 x72
+1 x73
+1 x74
+1 x75
+1 x76
+1 x77
+1 x78
+1 x79
+1 x80
+1 x81
+1 x82
+1 x83
+1 x84
+1 x85
+1 x86
+1 x87
+1 x88
+1 x89
+1 x90
+1 x91
+1 x92
+1 x93
+1 x94
+1 x95
+1 x96
+1 x97
+1 x98
+1 x99
+1 x100
+1 x101
+1 x102
+1 x103
+1 x104
+1 x105
+1 x106
+1 x107
+1 x108
+1 x109
+1 x110
+1 x111
+1 x112
+1 x113
+1 x114
+1 x115
+1 x116
+1 x117
+1 x118
+1 x119
+1 x120
+1 x121
+1 x122
+1 x123
+1 x124
+1 x125
+1 x126
+1 x127
+1 x128
+1 x129
+1 x130
+1 x131
+1 x132
+1 x133
+1 x134
+1 x135
+1 x136
+1 x137
+1 x138
+1 x139
+1 x140
+1 x141
+1 x142
+1 x143
+1 x144
+1 x145
+1 x146
+1 x147
+1 x148
+1 x149
+1 x150
+1 x151
+1 x152
+1 x153
+1 x154
+1 x155
+1 x156
+1 x157
+1 x158
+1 x159
+1 x160
+1 x161
+1 x162
+1 x163
+1 x164
+1 x165
+1 x166
+1 x167
+1 x168
+1 x169
+1 x170
+1 x171
+1 x172
+1 x173
+1 x174
+1 x175
+1 x176
+1 x177
+1 x178
+1 x179
+1 x180
+1 x181
+1 x182
= 72

c_e_x192_:
+1 x193
-1 x194
-1 x195
= 0.0

c_e_x196_:
+1 x194
-1 x197
+1 x198
= 0.0

c_e_x199_:
+1 x200
-1 x201
-1 x202
= 0.0104

c_e_x203_:
-1 x193
-1 x200
= 0.0216

c_e_x204_:
+1 x197
= 0.022400000000000003

c_e_x205_:
-1 x198
-1 x206
= 0.027200000000000002

c_e_x207_:
+1 x195
= 0.024

c_e_x208_:
+1 x209
-1 x210
-1 x211
-1 x212
-1 x213
= 0.0328

c_e_x214_:
+1 x210
-1 x215
-1 x216
-1 x217
= 0.0632

c_e_x218_:
+1 x211
+1 x215
-1 x219
-1 x220
-1 x221
= 0.0472

c_e_x222_:
+1 x219
-1 x223
-1 x224
-1 x225
-1 x226
-1 x227
-1 x228
= 0.020000000000000004

c_e_x229_:
+1 x230
= 0.0176

c_e_x231_:
+1 x232
+1 x220
+1 x223
-1 x233
= 0.0128

c_e_x234_:
-1 x230
-1 x232
= 0.0344

c_e_x235_:
+1 x236
-1 x237
= 0.0088

c_e_x238_:
-1 x236
+1 x224
+1 x233
= 0.0152

c_e_x239_:
-1 x240
-1 x241
-1 x242
= 0.0152

c_e_x243_:
+1 x240
-1 x244
= 0.008

c_e_x245_:
+1 x246
-1 x247
+1 x248
= 0.0

c_e_x249_:
+1 x247
-1 x250
-1 x251
= 0.0

c_e_x252_:
+1 x253
-1 x254
+1 x250
= 0.0

c_e_x255_:
+1 x256
-1 x248
-1 x257
= 0.0

c_e_x258_:
-1 x246
+1 x244
-1 x259
= 0.024

c_e_x260_:
-1 x256
= 0.0288

c_e_x261_:
+1 x257
= 0.004

c_e_x262_:
+1 x254
+1 x263
+1 x264
+1 x265
= 0.023200000000000002

c_e_x266_:
-1 x253
= 0.019200000000000002

c_e_x267_:
+1 x251
= 0.0144

c_e_x268_:
+1 x269
-1 x270
+1 x271
= 0.0

c_e_x272_:
+1 x273
-1 x274
-1 x275
= 0.0

c_e_x276_:
+1 x275
-1 x269
= 0.0216

c_e_x277_:
+1 x274
= 0.027200000000000002

c_e_x278_:
-1 x271
= 0.05600000000000001

c_e_x279_:
+1 x280
-1 x281
-1 x282
-1 x283
= 0.024800000000000003

c_e_x284_:
-1 x280
-1 x273
= 0.027200000000000002

c_e_x285_:
+1 x270
-1 x286
= 0.0072

c_e_x287_:
+1 x288
+1 x289
+1 x212
-1 x290
-1 x291
= 0.0176

c_e_x292_:
-1 x293
-1 x294
-1 x295
-1 x263
= 0.048

c_e_x296_:
+1 x297
+1 x206
= 0.036

c_e_x298_:
+1 x293
-1 x297
= 0.0176

c_e_x299_:
+1 x213
+1 x216
+1 x290
-1 x300
-1 x301
-1 x302
= 0.0208

c_e_x303_:
+1 x291
+1 x300
-1 x304
= 0.022400000000000003

c_e_x305_:
+1 x217
+1 x221
+1 x225
+1 x301
-1 x306
-1 x307
= 0.0144

c_e_x308_:
+1 x226
+1 x306
-1 x309
-1 x310
-1 x311
-1 x312
= 0.0208

c_e_x313_:
+1 x227
+1 x309
-1 x314
-1 x315
= 0.013600000000000001

c_e_x316_:
+1 x310
+1 x314
-1 x317
-1 x318
-1 x319
-1 x320
= 0.016800000000000002

c_e_x321_:
+1 x228
+1 x237
+1 x315
+1 x317
= 0.0184

c_e_x322_:
+1 x323
-1 x324
-1 x325
= 0.0

c_e_x326_:
-1 x323
+1 x241
+1 x259
= 0.019200000000000002

c_e_x327_:
+1 x325
-1 x328
-1 x329
-1 x330
= 0.0144

c_e_x331_:
+1 x324
= 0.011200000000000002

c_e_x332_:
+1 x333
-1 x334
-1 x335
-1 x336
-1 x337
= 0.0

c_e_x338_:
+1 x339
-1 x340
-1 x341
+1 x328
= 0.0

c_e_x342_:
-1 x343
-1 x339
-1 x344
= 0.0

c_e_x345_:
+1 x335
-1 x346
= 0.0288

c_e_x347_:
+1 x343
-1 x348
= 0.0064

c_e_x349_:
+1 x348
-1 x350
-1 x351
= 0.0048000000000000004

c_e_x352_:
+1 x341
-1 x333
= 0.0008

c_e_x353_:
+1 x334
= 0.008

c_e_x354_:
+1 x340
= 0.0072

c_e_x355_:
+1 x346
-1 x356
-1 x357
-1 x358
= 0.0144

c_e_x359_:
+1 x344
= 0.028000000000000004

c_e_x360_:
+1 x361
-1 x362
+1 x363
= 0.0

c_e_x364_:
+1 x365
-1 x361
= 0.022400000000000003

c_e_x366_:
+1 x367
-1 x363
-1 x368
= 0.0152

c_e_x369_:
+1 x370
-1 x371
-1 x372
= 0.0064

c_e_x373_:
-1 x370
-1 x367
= 0.0088

c_e_x374_:
-1 x365
+1 x350
-1 x375
= 0.016

c_e_x376_:
+1 x362
= 0.008

c_e_x377_:
+1 x378
-1 x264
= 0.0352

c_e_x379_:
-1 x378
+1 x294
-1 x380
-1 x381
= 0.024

c_e_x382_:
-1 x383
+1 x351
+1 x375
-1 x384
= 0.008

c_e_x385_:
+1 x383
+1 x286
= 0.004

c_e_x386_:
+1 x302
+1 x304
+1 x307
+1 x311
-1 x387
-1 x388
= 0.012

c_e_x389_:
+1 x312
+1 x318
+1 x387
-1 x390
-1 x391
= 0.0288

c_e_x392_:
+1 x393
-1 x394
-1 x395
= 0.0

c_e_x396_:
-1 x393
+1 x319
-1 x397
= 0.020000000000000004

c_e_x398_:
+1 x394
+1 x390
-1 x399
= 0.011200000000000002

c_e_x400_:
+1 x395
= 0.0104

c_e_x401_:
+1 x402
-1 x403
+1 x404
= 0.0

c_e_x405_:
+1 x403
-1 x406
-1 x407
= 0.0

c_e_x408_:
+1 x406
-1 x409
-1 x410
= 0.0

c_e_x411_:
-1 x404
= 0.0104

c_e_x412_:
+1 x410
+1 x242
+1 x329
+1 x336
-1 x413
= 0.016800000000000002

c_e_x414_:
-1 x402
-1 x415
= 0.031200000000000002

c_e_x416_:
+1 x407
-1 x417
= 0.016

c_e_x418_:
+1 x409
= 0.009600000000000001

c_e_x419_:
+1 x330
+1 x337
+1 x413
= 0.0152

c_e_x420_:
-1 x421
+1 x281
-1 x422
= 0.0064

c_e_x423_:
+1 x421
-1 x424
-1 x425
= 0.016

c_e_x426_:
-1 x427
-1 x428
-1 x429
= 0.0

c_e_x430_:
+1 x431
-1 x432
+1 x433
= 0.0

c_e_x434_:
+1 x429
-1 x431
+1 x435
= 0.0

c_e_x436_:
-1 x435
-1 x437
= 0.012

c_e_x438_:
-1 x433
= 0.016

c_e_x439_:
+1 x432
= 0.027200000000000002

c_e_x440_:
+1 x427
+1 x282
+1 x422
= 0.024

c_e_x441_:
+1 x428
= 0.05280000000000001

c_e_x442_:
+1 x388
+1 x391
+1 x399
-1 x443
= 0.011200000000000002

c_e_x444_:
+1 x320
+1 x397
+1 x443
-1 x445
-1 x446
-1 x447
= 0.0104

c_e_x448_:
+1 x201
+1 x295
+1 x380
-1 x449
-1 x450
-1 x451
= 0.011200000000000002

c_e_x452_:
+1 x445
-1 x453
= 0.0256

c_e_x454_:
+1 x446
+1 x453
-1 x455
= 0.0152

c_e_x456_:
+1 x457
-1 x458
+1 x459
= 0.0

c_e_x460_:
-1 x457
+1 x368
= 0.012

c_e_x461_:
-1 x459
+1 x356
-1 x462
-1 x463
-1 x464
= 0.0072

c_e_x465_:
+1 x458
= 0.0128

c_e_x466_:
+1 x467
+1 x283
+1 x424
= 0.0184

c_e_x468_:
-1 x467
+1 x371
+1 x384
-1 x469
-1 x470
= 0.0032

c_e_x471_:
+1 x472
-1 x473
+1 x415
= 0.036

c_e_x474_:
-1 x475
-1 x476
= 0.0216

c_e_x477_:
+1 x473
= 0.0144

c_e_x478_:
+1 x479
-1 x472
= 0.0288

c_e_x480_:
-1 x481
-1 x482
-1 x483
= 0.024800000000000003

c_e_x484_:
+1 x475
-1 x479
+1 x481
= 0.0

c_e_x485_:
+1 x486
-1 x487
+1 x488
= 0.0

c_e_x489_:
+1 x487
-1 x490
= 0.019200000000000002

c_e_x491_:
+1 x492
-1 x493
= 0.0376

c_e_x494_:
-1 x488
-1 x492
= 0.0288

c_e_x495_:
+1 x490
-1 x496
= 0.0128

c_e_x497_:
+1 x498
-1 x486
= 0.011200000000000002

c_e_x499_:
+1 x500
-1 x498
= 0.0152

c_e_x501_:
-1 x502
+1 x493
= 0.026400000000000003

c_e_x503_:
+1 x502
-1 x504
-1 x505
= 0.0152

c_e_x506_:
+1 x496
+1 x476
= 0.011200000000000002

c_e_x507_:
-1 x500
-1 x508
= 0.0088

c_e_x509_:
+1 x510
+1 x357
+1 x482
-1 x511
-1 x512
= 0.011200000000000002

c_e_x513_:
-1 x510
+1 x417
= 0.009600000000000001

c_e_x514_:
+1 x462
-1 x515
-1 x516
-1 x517
-1 x518
= 0.019200000000000002

c_e_x519_:
+1 x372
+1 x463
+1 x469
+1 x515
-1 x520
= 0.009600000000000001

c_e_x521_:
-1 x522
-1 x523
-1 x524
-1 x525
-1 x526
= 0.011200000000000002

c_e_x527_:
+1 x449
-1 x528
-1 x529
= 0.011200000000000002

c_e_x530_:
+1 x522
-1 x531
-1 x532
-1 x533
= 0.0432

c_e_x534_:
+1 x535
-1 x536
+1 x537
= 0.0

c_e_x538_:
-1 x535
+1 x531
-1 x539
= 0.0296

c_e_x540_:
+1 x536
-1 x541
-1 x542
-1 x543
-1 x544
= 0.036

c_e_x545_:
-1 x537
+1 x523
= 0.0328

c_e_x546_:
+1 x547
-1 x548
+1 x549
= 0.0

c_e_x550_:
+1 x548
-1 x551
= 0.0344

c_e_x552_:
-1 x547
+1 x425
+1 x437
-1 x553
= 0.0152

c_e_x554_:
-1 x549
+1 x532
+1 x539
-1 x555
= 0.016800000000000002

c_e_x556_:
+1 x551
-1 x557
-1 x558
= 0.011200000000000002

c_e_x559_:
+1 x560
-1 x561
+1 x562
= 0.0

c_e_x563_:
-1 x564
-1 x565
-1 x566
-1 x567
= 0.028000000000000004

c_e_x568_:
+1 x569
-1 x560
= 0.011200000000000002

c_e_x570_:
-1 x562
-1 x571
= 0.0176

c_e_x572_:
+1 x564
-1 x569
+1 x541
= 0.0456

c_e_x573_:
+1 x561
+1 x555
= 0.0088

c_e_x574_:
+1 x557
+1 x571
-1 x575
= 0.0288

c_e_x576_:
+1 x558
+1 x575
= 0.024800000000000003

c_e_x577_:
-1 x578
+1 x579
-1 x580
= 0.0

c_e_x581_:
+1 x578
+1 x504
= 0.026400000000000003

c_e_x582_:
+1 x580
-1 x583
= 0.0488

c_e_x584_:
+1 x585
-1 x586
-1 x587
= 0.0104

c_e_x588_:
-1 x579
-1 x585
= 0.022400000000000003

c_e_x589_:
+1 x590
-1 x591
-1 x592
-1 x593
-1 x594
= 0.044000000000000004

c_e_x595_:
-1 x590
-1 x596
= 0.0144

c_e_x597_:
+1 x598
+1 x591
-1 x599
-1 x600
= 0.0064

c_e_x601_:
-1 x598
+1 x586
-1 x602
-1 x603
= 0.0472

c_e_x604_:
+1 x602
-1 x605
-1 x606
= 0.027200000000000002

c_e_x607_:
+1 x202
+1 x450
+1 x528
-1 x608
= 0.0104

c_e_x609_:
+1 x592
+1 x599
-1 x610
-1 x611
-1 x612
= 0.0376

c_e_x613_:
+1 x542
+1 x600
+1 x605
+1 x610
-1 x614
-1 x615
-1 x616
= 0.0128

c_e_x617_:
+1 x611
+1 x614
-1 x618
-1 x619
= 0.0152

c_e_x620_:
+1 x621
+1 x543
+1 x565
+1 x615
-1 x622
-1 x623
= 0.0488

c_e_x624_:
-1 x625
-1 x626
-1 x627
= 0.009600000000000001

c_e_x628_:
+1 x625
-1 x621
+1 x618
= 0.0488

c_e_x629_:
-1 x630
+1 x566
= 0.05360000000000001

c_e_x631_:
+1 x630
+1 x622
-1 x632
= 0.0088

c_e_x633_:
+1 x634
-1 x635
-1 x636
= 0.0

c_e_x637_:
-1 x638
-1 x634
+1 x623
+1 x632
= 0.0288

c_e_x639_:
+1 x638
-1 x640
-1 x641
-1 x642
-1 x643
= 0.0216

c_e_x644_:
+1 x640
= 0.0104

c_e_x645_:
+1 x636
-1 x646
= 0.024800000000000003

c_e_x647_:
+1 x635
+1 x567
= 0.0416

c_e_x648_:
+1 x646
= 0.008

c_e_x649_:
+1 x650
-1 x651
-1 x652
-1 x653
= 0.0288

c_e_x654_:
+1 x655
= 0.0184

c_e_x656_:
-1 x650
-1 x655
= 0.011200000000000002

c_e_x657_:
-1 x658
-1 x659
-1 x660
= 0.0

c_e_x661_:
+1 x662
-1 x663
+1 x664
+1 x626
-1 x665
= 0.0

c_e_x666_:
-1 x667
-1 x668
+1 x641
-1 x669
= 0.033600000000000005

c_e_x670_:
+1 x668
-1 x664
= 0.023200000000000002

c_e_x671_:
+1 x672
-1 x673
-1 x674
= 0.0512

c_e_x675_:
+1 x663
= 0.06

c_e_x676_:
+1 x673
= 0.019200000000000002

c_e_x677_:
+1 x678
-1 x679
= 0.0088

c_e_x680_:
+1 x660
-1 x672
= 0.039200000000000006

c_e_x681_:
+1 x659
= 0.004

c_e_x682_:
+1 x658
-1 x662
+1 x593
+1 x612
+1 x619
= 0.0352

c_e_x683_:
-1 x678
+1 x667
= 0.0064

c_e_x684_:
+1 x651
-1 x685
-1 x686
-1 x687
= 0.0072

c_e_x688_:
+1 x689
-1 x690
+1 x691
= 0.0

c_e_x692_:
-1 x689
-1 x693
= 0.0328

c_e_x694_:
+1 x695
+1 x594
+1 x674
= 0.036

c_e_x696_:
+1 x697
+1 x652
+1 x685
= 0.0184

c_e_x698_:
-1 x691
= 0.0216

c_e_x699_:
+1 x690
-1 x697
-1 x700
= 0.0352

c_e_x701_:
+1 x693
-1 x695
= 0.024800000000000003

c_e_x702_:
-1 x703
= 0.008

c_e_x704_:
+1 x703
+1 x381
+1 x451
+1 x529
+1 x608
-1 x265
= 0.011200000000000002

c_e_x705_:
+1 x627
+1 x642
+1 x665
-1 x706
= 0.022400000000000003

c_e_x707_:
+1 x708
-1 x709
-1 x710
-1 x711
= 0.0

c_e_x712_:
-1 x708
+1 x713
= 0.022400000000000003

c_e_x714_:
+1 x710
= 0.016

c_e_x715_:
-1 x713
= 0.0072

c_e_x716_:
+1 x709
+1 x679
+1 x686
+1 x700
= 0.019200000000000002

c_e_x717_:
+1 x643
+1 x669
+1 x706
= 0.0104

c_e_x718_:
-1 x719
-1 x288
= 0.0152

c_e_x720_:
+1 x719
-1 x209
-1 x289
= 0.012

c_e_x721_:
+1 x483
+1 x508
+1 x511
+1 x516
+1 x583
+1 x722
= 0

c_e_x723_:
+1 x358
+1 x464
+1 x512
+1 x517
+1 x724
= 0

c_e_x725_:
+1 x470
+1 x518
+1 x520
+1 x524
+1 x726
= 0

c_e_x727_:
+1 x525
+1 x533
+1 x553
+1 x728
= 0

c_e_x729_:
+1 x526
+1 x544
+1 x606
+1 x616
+1 x730
= 0

c_e_x731_:
+1 x653
+1 x687
+1 x711
+1 x732
= 0

c_e_x733_:
+1 x505
+1 x587
+1 x596
+1 x603
+1 x734
= 0

c_e_x735_:
+1 x447
+1 x455
+1 x736
= 0

c_u_x737_:
-6.69 x2
+1 x206
<= 0

c_u_x738_:
-6.69 x3
+1 x201
<= 0

c_u_x739_:
-6.69 x4
+1 x202
<= 0

c_u_x740_:
-6.69 x5
+1 x294
<= 0

c_u_x741_:
-6.69 x6
+1 x295
<= 0

c_u_x742_:
-6.69 x7
+1 x263
<= 0

c_u_x743_:
-6.69 x8
+1 x380
<= 0

c_u_x744_:
-6.69 x9
+1 x381
<= 0

c_u_x745_:
-6.69 x10
+1 x264
<= 0

c_u_x746_:
-6.69 x11
+1 x449
<= 0

c_u_x747_:
-6.69 x12
+1 x450
<= 0

c_u_x748_:
-6.69 x13
+1 x451
<= 0

c_u_x749_:
-6.69 x14
+1 x528
<= 0

c_u_x750_:
-6.69 x15
+1 x529
<= 0

c_u_x751_:
-6.69 x16
+1 x608
<= 0

c_u_x752_:
-6.69 x17
+1 x265
<= 0

c_u_x753_:
-6.69 x18
+1 x719
<= 0

c_u_x754_:
-6.69 x19
+1 x288
<= 0

c_u_x755_:
-6.69 x20
+1 x209
<= 0

c_u_x756_:
-6.69 x21
+1 x289
<= 0

c_u_x757_:
-6.69 x22
+1 x210
<= 0

c_u_x758_:
-6.69 x23
+1 x211
<= 0

c_u_x759_:
-6.69 x24
+1 x212
<= 0

c_u_x760_:
-6.69 x25
+1 x213
<= 0

c_u_x761_:
-6.69 x26
+1 x215
<= 0

c_u_x762_:
-6.69 x27
+1 x216
<= 0

c_u_x763_:
-6.69 x28
+1 x217
<= 0

c_u_x764_:
-6.69 x29
+1 x219
<= 0

c_u_x765_:
-6.69 x30
+1 x220
<= 0

c_u_x766_:
-6.69 x31
+1 x221
<= 0

c_u_x767_:
-6.69 x32
+1 x223
<= 0

c_u_x768_:
-6.69 x33
+1 x224
<= 0

c_u_x769_:
-6.69 x34
+1 x225
<= 0

c_u_x770_:
-6.69 x35
+1 x226
<= 0

c_u_x771_:
-6.69 x36
+1 x227
<= 0

c_u_x772_:
-6.69 x37
+1 x228
<= 0

c_u_x773_:
-6.69 x38
+1 x233
<= 0

c_u_x774_:
-6.69 x39
+1 x237
<= 0

c_u_x775_:
-6.69 x40
+1 x244
<= 0

c_u_x776_:
-6.69 x41
+1 x241
<= 0

c_u_x777_:
-6.69 x42
+1 x242
<= 0

c_u_x778_:
-6.69 x43
+1 x259
<= 0

c_u_x779_:
-6.69 x44
+1 x286
<= 0

c_u_x780_:
-6.69 x45
+1 x281
<= 0

c_u_x781_:
-6.69 x46
+1 x282
<= 0

c_u_x782_:
-6.69 x47
+1 x283
<= 0

c_u_x783_:
-6.69 x48
+1 x290
<= 0

c_u_x784_:
-6.69 x49
+1 x291
<= 0

c_u_x785_:
-6.69 x50
+1 x300
<= 0

c_u_x786_:
-6.69 x51
+1 x301
<= 0

c_u_x787_:
-6.69 x52
+1 x302
<= 0

c_u_x788_:
-6.69 x53
+1 x304
<= 0

c_u_x789_:
-6.69 x54
+1 x306
<= 0

c_u_x790_:
-6.69 x55
+1 x307
<= 0

c_u_x791_:
-6.69 x56
+1 x309
<= 0

c_u_x792_:
-6.69 x57
+1 x310
<= 0

c_u_x793_:
-6.69 x58
+1 x311
<= 0

c_u_x794_:
-6.69 x59
+1 x312
<= 0

c_u_x795_:
-6.69 x60
+1 x314
<= 0

c_u_x796_:
-6.69 x61
+1 x315
<= 0

c_u_x797_:
-6.69 x62
+1 x317
<= 0

c_u_x798_:
-6.69 x63
+1 x318
<= 0

c_u_x799_:
-6.69 x64
+1 x319
<= 0

c_u_x800_:
-6.69 x65
+1 x320
<= 0

c_u_x801_:
-6.69 x66
+1 x328
<= 0

c_u_x802_:
-6.69 x67
+1 x329
<= 0

c_u_x803_:
-6.69 x68
+1 x330
<= 0

c_u_x804_:
-6.69 x69
+1 x350
<= 0

c_u_x805_:
-6.69 x70
+1 x351
<= 0

c_u_x806_:
-6.69 x71
+1 x336
<= 0

c_u_x807_:
-6.69 x72
+1 x337
<= 0

c_u_x808_:
-6.69 x73
+1 x356
<= 0

c_u_x809_:
-6.69 x74
+1 x357
<= 0

c_u_x810_:
-6.69 x75
+1 x375
<= 0

c_u_x811_:
-6.69 x76
+1 x368
<= 0

c_u_x812_:
-6.69 x77
+1 x371
<= 0

c_u_x813_:
-6.69 x78
+1 x372
<= 0

c_u_x814_:
-6.69 x79
+1 x384
<= 0

c_u_x815_:
-6.69 x80
+1 x387
<= 0

c_u_x816_:
-6.69 x81
+1 x388
<= 0

c_u_x817_:
-6.69 x82
+1 x390
<= 0

c_u_x818_:
-6.69 x83
+1 x391
<= 0

c_u_x819_:
-6.69 x84
+1 x399
<= 0

c_u_x820_:
-6.69 x85
+1 x397
<= 0

c_u_x821_:
-6.69 x86
+1 x413
<= 0

c_u_x822_:
-6.69 x87
+1 x415
<= 0

c_u_x823_:
-6.69 x88
+1 x417
<= 0

c_u_x824_:
-6.69 x89
+1 x422
<= 0

c_u_x825_:
-6.69 x90
+1 x424
<= 0

c_u_x826_:
-6.69 x91
+1 x425
<= 0

c_u_x827_:
-6.69 x92
+1 x437
<= 0

c_u_x828_:
-6.69 x93
+1 x443
<= 0

c_u_x829_:
-6.69 x94
+1 x445
<= 0

c_u_x830_:
-6.69 x95
+1 x446
<= 0

c_u_x831_:
-6.69 x96
+1 x453
<= 0

c_u_x832_:
-6.69 x97
+1 x462
<= 0

c_u_x833_:
-6.69 x98
+1 x463
<= 0

c_u_x834_:
-6.69 x99
+1 x469
<= 0

c_u_x835_:
-6.69 x100
+1 x476
<= 0

c_u_x836_:
-6.69 x101
+1 x482
<= 0

c_u_x837_:
-6.69 x102
+1 x504
<= 0

c_u_x838_:
-6.69 x103
+1 x515
<= 0

c_u_x839_:
-6.69 x104
+1 x522
<= 0

c_u_x840_:
-6.69 x105
+1 x523
<= 0

c_u_x841_:
-6.69 x106
+1 x531
<= 0

c_u_x842_:
-6.69 x107
+1 x532
<= 0

c_u_x843_:
-6.69 x108
+1 x539
<= 0

c_u_x844_:
-6.69 x109
+1 x541
<= 0

c_u_x845_:
-6.69 x110
+1 x542
<= 0

c_u_x846_:
-6.69 x111
+1 x543
<= 0

c_u_x847_:
-6.69 x112
+1 x555
<= 0

c_u_x848_:
-6.69 x113
+1 x557
<= 0

c_u_x849_:
-6.69 x114
+1 x558
<= 0

c_u_x850_:
-6.69 x115
+1 x571
<= 0

c_u_x851_:
-6.69 x116
+1 x565
<= 0

c_u_x852_:
-6.69 x117
+1 x566
<= 0

c_u_x853_:
-6.69 x118
+1 x567
<= 0

c_u_x854_:
-6.69 x119
+1 x575
<= 0

c_u_x855_:
-6.69 x120
+1 x586
<= 0

c_u_x856_:
-6.69 x121
+1 x591
<= 0

c_u_x857_:
-6.69 x122
+1 x592
<= 0

c_u_x858_:
-6.69 x123
+1 x593
<= 0

c_u_x859_:
-6.69 x124
+1 x594
<= 0

c_u_x860_:
-6.69 x125
+1 x602
<= 0

c_u_x861_:
-6.69 x126
+1 x599
<= 0

c_u_x862_:
-6.69 x127
+1 x600
<= 0

c_u_x863_:
-6.69 x128
+1 x605
<= 0

c_u_x864_:
-6.69 x129
+1 x610
<= 0

c_u_x865_:
-6.69 x130
+1 x611
<= 0

c_u_x866_:
-6.69 x131
+1 x612
<= 0

c_u_x867_:
-6.69 x132
+1 x614
<= 0

c_u_x868_:
-6.69 x133
+1 x615
<= 0

c_u_x869_:
-6.69 x134
+1 x618
<= 0

c_u_x870_:
-6.69 x135
+1 x619
<= 0

c_u_x871_:
-6.69 x136
+1 x622
<= 0

c_u_x872_:
-6.69 x137
+1 x623
<= 0

c_u_x873_:
-6.69 x138
+1 x626
<= 0

c_u_x874_:
-6.69 x139
+1 x627
<= 0

c_u_x875_:
-6.69 x140
+1 x632
<= 0

c_u_x876_:
-6.69 x141
+1 x641
<= 0

c_u_x877_:
-6.69 x142
+1 x642
<= 0

c_u_x878_:
-6.69 x143
+1 x643
<= 0

c_u_x879_:
-6.69 x144
+1 x651
<= 0

c_u_x880_:
-6.69 x145
+1 x652
<= 0

c_u_x881_:
-6.69 x146
+1 x674
<= 0

c_u_x882_:
-6.69 x147
+1 x665
<= 0

c_u_x883_:
-6.69 x148
+1 x679
<= 0

c_u_x884_:
-6.69 x149
+1 x669
<= 0

c_u_x885_:
-6.69 x150
+1 x685
<= 0

c_u_x886_:
-6.69 x151
+1 x686
<= 0

c_u_x887_:
-6.69 x152
+1 x700
<= 0

c_u_x888_:
-6.69 x153
+1 x706
<= 0

c_u_x889_:
-6.69 x154
+1 x358
<= 0

c_u_x890_:
-6.69 x155
+1 x447
<= 0

c_u_x891_:
-6.69 x156
+1 x455
<= 0

c_u_x892_:
-6.69 x157
+1 x464
<= 0

c_u_x893_:
-6.69 x158
+1 x470
<= 0

c_u_x894_:
-6.69 x159
+1 x483
<= 0

c_u_x895_:
-6.69 x160
+1 x508
<= 0

c_u_x896_:
-6.69 x161
+1 x505
<= 0

c_u_x897_:
-6.69 x162
+1 x511
<= 0

c_u_x898_:
-6.69 x163
+1 x512
<= 0

c_u_x899_:
-6.69 x164
+1 x516
<= 0

c_u_x900_:
-6.69 x165
+1 x517
<= 0

c_u_x901_:
-6.69 x166
+1 x518
<= 0

c_u_x902_:
-6.69 x167
+1 x520
<= 0

c_u_x903_:
-6.69 x168
+1 x524
<= 0

c_u_x904_:
-6.69 x169
+1 x525
<= 0

c_u_x905_:
-6.69 x170
+1 x526
<= 0

c_u_x906_:
-6.69 x171
+1 x533
<= 0

c_u_x907_:
-6.69 x172
+1 x544
<= 0

c_u_x908_:
-6.69 x173
+1 x553
<= 0

c_u_x909_:
-6.69 x174
+1 x583
<= 0

c_u_x910_:
-6.69 x175
+1 x587
<= 0

c_u_x911_:
-6.69 x176
+1 x596
<= 0

c_u_x912_:
-6.69 x177
+1 x603
<= 0

c_u_x913_:
-6.69 x178
+1 x606
<= 0

c_u_x914_:
-6.69 x179
+1 x616
<= 0

c_u_x915_:
-6.69 x180
+1 x653
<= 0

c_u_x916_:
-6.69 x181
+1 x687
<= 0

c_u_x917_:
-6.69 x182
+1 x711
<= 0

c_u_x918_:
-6.69 x2
-1 x206
<= 0

c_u_x919_:
-6.69 x3
-1 x201
<= 0

c_u_x920_:
-6.69 x4
-1 x202
<= 0

c_u_x921_:
-6.69 x5
-1 x294
<= 0

c_u_x922_:
-6.69 x6
-1 x295
<= 0

c_u_x923_:
-6.69 x7
-1 x263
<= 0

c_u_x924_:
-6.69 x8
-1 x380
<= 0

c_u_x925_:
-6.69 x9
-1 x381
<= 0

c_u_x926_:
-6.69 x10
-1 x264
<= 0

c_u_x927_:
-6.69 x11
-1 x449
<= 0

c_u_x928_:
-6.69 x12
-1 x450
<= 0

c_u_x929_:
-6.69 x13
-1 x451
<= 0

c_u_x930_:
-6.69 x14
-1 x528
<= 0

c_u_x931_:
-6.69 x15
-1 x529
<= 0

c_u_x932_:
-6.69 x16
-1 x608
<= 0

c_u_x933_:
-6.69 x17
-1 x265
<= 0

c_u_x934_:
-6.69 x18
-1 x719
<= 0

c_u_x935_:
-6.69 x19
-1 x288
<= 0

c_u_x936_:
-6.69 x20
-1 x209
<= 0

c_u_x937_:
-6.69 x21
-1 x289
<= 0

c_u_x938_:
-6.69 x22
-1 x210
<= 0

c_u_x939_:
-6.69 x23
-1 x211
<= 0

c_u_x940_:
-6.69 x24
-1 x212
<= 0

c_u_x941_:
-6.69 x25
-1 x213
<= 0

c_u_x942_:
-6.69 x26
-1 x215
<= 0

c_u_x943_:
-6.69 x27
-1 x216
<= 0

c_u_x944_:
-6.69 x28
-1 x217
<= 0

c_u_x945_:
-6.69 x29
-1 x219
<= 0

c_u_x946_:
-6.69 x30
-1 x220
<= 0

c_u_x947_:
-6.69 x31
-1 x221
<= 0

c_u_x948_:
-6.69 x32
-1 x223
<= 0

c_u_x949_:
-6.69 x33
-1 x224
<= 0

c_u_x950_:
-6.69 x34
-1 x225
<= 0

c_u_x951_:
-6.69 x35
-1 x226
<= 0

c_u_x952_:
-6.69 x36
-1 x227
<= 0

c_u_x953_:
-6.69 x37
-1 x228
<= 0

c_u_x954_:
-6.69 x38
-1 x233
<= 0

c_u_x955_:
-6.69 x39
-1 x237
<= 0

c_u_x956_:
-6.69 x40
-1 x244
<= 0

c_u_x957_:
-6.69 x41
-1 x241
<= 0

c_u_x958_:
-6.69 x42
-1 x242
<= 0

c_u_x959_:
-6.69 x43
-1 x259
<= 0

c_u_x960_:
-6.69 x44
-1 x286
<= 0

c_u_x961_:
-6.69 x45
-1 x281
<= 0

c_u_x962_:
-6.69 x46
-1 x282
<= 0

c_u_x963_:
-6.69 x47
-1 x283
<= 0

c_u_x964_:
-6.69 x48
-1 x290
<= 0

c_u_x965_:
-6.69 x49
-1 x291
<= 0

c_u_x966_:
-6.69 x50
-1 x300
<= 0

c_u_x967_:
-6.69 x51
-1 x301
<= 0

c_u_x968_:
-6.69 x52
-1 x302
<= 0

c_u_x969_:
-6.69 x53
-1 x304
<= 0

c_u_x970_:
-6.69 x54
-1 x306
<= 0

c_u_x971_:
-6.69 x55
-1 x307
<= 0

c_u_x972_:
-6.69 x56
-1 x309
<= 0

c_u_x973_:
-6.69 x57
-1 x310
<= 0

c_u_x974_:
-6.69 x58
-1 x311
<= 0

c_u_x975_:
-6.69 x59
-1 x312
<= 0

c_u_x976_:
-6.69 x60
-1 x314
<= 0

c_u_x977_:
-6.69 x61
-1 x315
<= 0

c_u_x978_:
-6.69 x62
-1 x317
<= 0

c_u_x979_:
-6.69 x63
-1 x318
<= 0

c_u_x980_:
-6.69 x64
-1 x319
<= 0

c_u_x981_:
-6.69 x65
-1 x320
<= 0

c_u_x982_:
-6.69 x66
-1 x328
<= 0

c_u_x983_:
-6.69 x67
-1 x329
<= 0

c_u_x984_:
-6.69 x68
-1 x330
<= 0

c_u_x985_:
-6.69 x69
-1 x350
<= 0

c_u_x986_:
-6.69 x70
-1 x351
<= 0

c_u_x987_:
-6.69 x71
-1 x336
<= 0

c_u_x988_:
-6.69 x72
-1 x337
<= 0

c_u_x989_:
-6.69 x73
-1 x356
<= 0

c_u_x990_:
-6.69 x74
-1 x357
<= 0

c_u_x991_:
-6.69 x75
-1 x375
<= 0

c_u_x992_:
-6.69 x76
-1 x368
<= 0

c_u_x993_:
-6.69 x77
-1 x371
<= 0

c_u_x994_:
-6.69 x78
-1 x372
<= 0

c_u_x995_:
-6.69 x79
-1 x384
<= 0

c_u_x996_:
-6.69 x80
-1 x387
<= 0

c_u_x997_:
-6.69 x81
-1 x388
<= 0

c_u_x998_:
-6.69 x82
-1 x390
<= 0

c_u_x999_:
-6.69 x83
-1 x391
<= 0

c_u_x1000_:
-6.69 x84
-1 x399
<= 0

c_u_x1001_:
-6.69 x85
-1 x397
<= 0

c_u_x1002_:
-6.69 x86
-1 x413
<= 0

c_u_x1003_:
-6.69 x87
-1 x415
<= 0

c_u_x1004_:
-6.69 x88
-1 x417
<= 0

c_u_x1005_:
-6.69 x89
-1 x422
<= 0

c_u_x1006_:
-6.69 x90
-1 x424
<= 0

c_u_x1007_:
-6.69 x91
-1 x425
<= 0

c_u_x1008_:
-6.69 x92
-1 x437
<= 0

c_u_x1009_:
-6.69 x93
-1 x443
<= 0

c_u_x1010_:
-6.69 x94
-1 x445
<= 0

c_u_x1011_:
-6.69 x95
-1 x446
<= 0

c_u_x1012_:
-6.69 x96
-1 x453
<= 0

c_u_x1013_:
-6.69 x97
-1 x462
<= 0

c_u_x1014_:
-6.69 x98
-1 x463
<= 0

c_u_x1015_:
-6.69 x99
-1 x469
<= 0

c_u_x1016_:
-6.69 x100
-1 x476
<= 0

c_u_x1017_:
-6.69 x101
-1 x482
<= 0

c_u_x1018_:
-6.69 x102
-1 x504
<= 0

c_u_x1019_:
-6.69 x103
-1 x515
<= 0

c_u_x1020_:
-6.69 x104
-1 x522
<= 0

c_u_x1021_:
-6.69 x105
-1 x523
<= 0

c_u_x1022_:
-6.69 x106
-1 x531
<= 0

c_u_x1023_:
-6.69 x107
-1 x532
<= 0

c_u_x1024_:
-6.69 x108
-1 x539
<= 0

c_u_x1025_:
-6.69 x109
-1 x541
<= 0

c_u_x1026_:
-6.69 x110
-1 x542
<= 0

c_u_x1027_:
-6.69 x111
-1 x543
<= 0

c_u_x1028_:
-6.69 x112
-1 x555
<= 0

c_u_x1029_:
-6.69 x113
-1 x557
<= 0

c_u_x1030_:
-6.69 x114
-1 x558
<= 0

c_u_x1031_:
-6.69 x115
-1 x571
<= 0

c_u_x1032_:
-6.69 x116
-1 x565
<= 0

c_u_x1033_:
-6.69 x117
-1 x566
<= 0

c_u_x1034_:
-6.69 x118
-1 x567
<= 0

c_u_x1035_:
-6.69 x119
-1 x575
<= 0

c_u_x1036_:
-6.69 x120
-1 x586
<= 0

c_u_x1037_:
-6.69 x121
-1 x591
<= 0

c_u_x1038_:
-6.69 x122
-1 x592
<= 0

c_u_x1039_:
-6.69 x123
-1 x593
<= 0

c_u_x1040_:
-6.69 x124
-1 x594
<= 0

c_u_x1041_:
-6.69 x125
-1 x602
<= 0

c_u_x1042_:
-6.69 x126
-1 x599
<= 0

c_u_x1043_:
-6.69 x127
-1 x600
<= 0

c_u_x1044_:
-6.69 x128
-1 x605
<= 0

c_u_x1045_:
-6.69 x129
-1 x610
<= 0

c_u_x1046_:
-6.69 x130
-1 x611
<= 0

c_u_x1047_:
-6.69 x131
-1 x612
<= 0

c_u_x1048_:
-6.69 x132
-1 x614
<= 0

c_u_x1049_:
-6.69 x133
-1 x615
<= 0

c_u_x1050_:
-6.69 x134
-1 x618
<= 0

c_u_x1051_:
-6.69 x135
-1 x619
<= 0

c_u_x1052_:
-6.69 x136
-1 x622
<= 0

c_u_x1053_:
-6.69 x137
-1 x623
<= 0

c_u_x1054_:
-6.69 x138
-1 x626
<= 0

c_u_x1055_:
-6.69 x139
-1 x627
<= 0

c_u_x1056_:
-6.69 x140
-1 x632
<= 0

c_u_x1057_:
-6.69 x141
-1 x641
<= 0

c_u_x1058_:
-6.69 x142
-1 x642
<= 0

c_u_x1059_:
-6.69 x143
-1 x643
<= 0

c_u_x1060_:
-6.69 x144
-1 x651
<= 0

c_u_x1061_:
-6.69 x145
-1 x652
<= 0

c_u_x1062_:
-6.69 x146
-1 x674
<= 0

c_u_x1063_:
-6.69 x147
-1 x665
<= 0

c_u_x1064_:
-6.69 x148
-1 x679
<= 0

c_u_x1065_:
-6.69 x149
-1 x669
<= 0

c_u_x1066_:
-6.69 x150
-1 x685
<= 0

c_u_x1067_:
-6.69 x151
-1 x686
<= 0

c_u_x1068_:
-6.69 x152
-1 x700
<= 0

c_u_x1069_:
-6.69 x153
-1 x706
<= 0

c_u_x1070_:
-6.69 x154
-1 x358
<= 0

c_u_x1071_:
-6.69 x155
-1 x447
<= 0

c_u_x1072_:
-6.69 x156
-1 x455
<= 0

c_u_x1073_:
-6.69 x157
-1 x464
<= 0

c_u_x1074_:
-6.69 x158
-1 x470
<= 0

c_u_x1075_:
-6.69 x159
-1 x483
<= 0

c_u_x1076_:
-6.69 x160
-1 x508
<= 0

c_u_x1077_:
-6.69 x161
-1 x505
<= 0

c_u_x1078_:
-6.69 x162
-1 x511
<= 0

c_u_x1079_:
-6.69 x163
-1 x512
<= 0

c_u_x1080_:
-6.69 x164
-1 x516
<= 0

c_u_x1081_:
-6.69 x165
-1 x517
<= 0

c_u_x1082_:
-6.69 x166
-1 x518
<= 0

c_u_x1083_:
-6.69 x167
-1 x520
<= 0

c_u_x1084_:
-6.69 x168
-1 x524
<= 0

c_u_x1085_:
-6.69 x169
-1 x525
<= 0

c_u_x1086_:
-6.69 x170
-1 x526
<= 0

c_u_x1087_:
-6.69 x171
-1 x533
<= 0

c_u_x1088_:
-6.69 x172
-1 x544
<= 0

c_u_x1089_:
-6.69 x173
-1 x553
<= 0

c_u_x1090_:
-6.69 x174
-1 x583
<= 0

c_u_x1091_:
-6.69 x175
-1 x587
<= 0

c_u_x1092_:
-6.69 x176
-1 x596
<= 0

c_u_x1093_:
-6.69 x177
-1 x603
<= 0

c_u_x1094_:
-6.69 x178
-1 x606
<= 0

c_u_x1095_:
-6.69 x179
-1 x616
<= 0

c_u_x1096_:
-6.69 x180
-1 x653
<= 0

c_u_x1097_:
-6.69 x181
-1 x687
<= 0

c_u_x1098_:
-6.69 x182
-1 x711
<= 0

c_u_x1099_:
+1 x193
<= 6.69

c_u_x1100_:
+1 x194
<= 6.69

c_u_x1101_:
+1 x197
<= 6.69

c_u_x1102_:
+1 x200
<= 6.69

c_u_x1103_:
+1 x198
<= 6.69

c_u_x1104_:
+1 x195
<= 6.69

c_u_x1105_:
+1 x230
<= 6.69

c_u_x1106_:
+1 x232
<= 6.69

c_u_x1107_:
+1 x236
<= 6.69

c_u_x1108_:
+1 x240
<= 6.69

c_u_x1109_:
+1 x253
<= 6.69

c_u_x1110_:
+1 x254
<= 6.69

c_u_x1111_:
+1 x246
<= 6.69

c_u_x1112_:
+1 x247
<= 6.69

c_u_x1113_:
+1 x250
<= 6.69

c_u_x1114_:
+1 x256
<= 6.69

c_u_x1115_:
+1 x248
<= 6.69

c_u_x1116_:
+1 x251
<= 6.69

c_u_x1117_:
+1 x257
<= 6.69

c_u_x1118_:
+1 x280
<= 6.69

c_u_x1119_:
+1 x273
<= 6.69

c_u_x1120_:
+1 x274
<= 6.69

c_u_x1121_:
+1 x275
<= 6.69

c_u_x1122_:
+1 x269
<= 6.69

c_u_x1123_:
+1 x270
<= 6.69

c_u_x1124_:
+1 x271
<= 6.69

c_u_x1125_:
+1 x293
<= 6.69

c_u_x1126_:
+1 x297
<= 6.69

c_u_x1127_:
+1 x323
<= 6.69

c_u_x1128_:
+1 x324
<= 6.69

c_u_x1129_:
+1 x325
<= 6.69

c_u_x1130_:
+1 x343
<= 6.69

c_u_x1131_:
+1 x348
<= 6.69

c_u_x1132_:
+1 x339
<= 6.69

c_u_x1133_:
+1 x340
<= 6.69

c_u_x1134_:
+1 x344
<= 6.69

c_u_x1135_:
+1 x341
<= 6.69

c_u_x1136_:
+1 x333
<= 6.69

c_u_x1137_:
+1 x334
<= 6.69

c_u_x1138_:
+1 x335
<= 6.69

c_u_x1139_:
+1 x346
<= 6.69

c_u_x1140_:
+1 x365
<= 6.69

c_u_x1141_:
+1 x361
<= 6.69

c_u_x1142_:
+1 x362
<= 6.69

c_u_x1143_:
+1 x370
<= 6.69

c_u_x1144_:
+1 x367
<= 6.69

c_u_x1145_:
+1 x363
<= 6.69

c_u_x1146_:
+1 x378
<= 6.69

c_u_x1147_:
+1 x383
<= 6.69

c_u_x1148_:
+1 x393
<= 6.69

c_u_x1149_:
+1 x394
<= 6.69

c_u_x1150_:
+1 x395
<= 6.69

c_u_x1151_:
+1 x402
<= 6.69

c_u_x1152_:
+1 x403
<= 6.69

c_u_x1153_:
+1 x406
<= 6.69

c_u_x1154_:
+1 x409
<= 6.69

c_u_x1155_:
+1 x404
<= 6.69

c_u_x1156_:
+1 x407
<= 6.69

c_u_x1157_:
+1 x410
<= 6.69

c_u_x1158_:
+1 x421
<= 6.69

c_u_x1159_:
+1 x427
<= 6.69

c_u_x1160_:
+1 x428
<= 6.69

c_u_x1161_:
+1 x429
<= 6.69

c_u_x1162_:
+1 x431
<= 6.69

c_u_x1163_:
+1 x432
<= 6.69

c_u_x1164_:
+1 x435
<= 6.69

c_u_x1165_:
+1 x433
<= 6.69

c_u_x1166_:
+1 x457
<= 6.69

c_u_x1167_:
+1 x458
<= 6.69

c_u_x1168_:
+1 x459
<= 6.69

c_u_x1169_:
+1 x467
<= 6.69

c_u_x1170_:
+1 x475
<= 6.69

c_u_x1171_:
+1 x479
<= 6.69

c_u_x1172_:
+1 x472
<= 6.69

c_u_x1173_:
+1 x473
<= 6.69

c_u_x1174_:
+1 x481
<= 6.69

c_u_x1175_:
+1 x500
<= 6.69

c_u_x1176_:
+1 x498
<= 6.69

c_u_x1177_:
+1 x486
<= 6.69

c_u_x1178_:
+1 x487
<= 6.69

c_u_x1179_:
+1 x490
<= 6.69

c_u_x1180_:
+1 x496
<= 6.69

c_u_x1181_:
+1 x502
<= 6.69

c_u_x1182_:
+1 x488
<= 6.69

c_u_x1183_:
+1 x492
<= 6.69

c_u_x1184_:
+1 x493
<= 6.69

c_u_x1185_:
+1 x510
<= 6.69

c_u_x1186_:
+1 x535
<= 6.69

c_u_x1187_:
+1 x536
<= 6.69

c_u_x1188_:
+1 x537
<= 6.69

c_u_x1189_:
+1 x547
<= 6.69

c_u_x1190_:
+1 x548
<= 6.69

c_u_x1191_:
+1 x551
<= 6.69

c_u_x1192_:
+1 x549
<= 6.69

c_u_x1193_:
+1 x564
<= 6.69

c_u_x1194_:
+1 x569
<= 6.69

c_u_x1195_:
+1 x560
<= 6.69

c_u_x1196_:
+1 x561
<= 6.69

c_u_x1197_:
+1 x562
<= 6.69

c_u_x1198_:
+1 x578
<= 6.69

c_u_x1199_:
+1 x579
<= 6.69

c_u_x1200_:
+1 x580
<= 6.69

c_u_x1201_:
+1 x585
<= 6.69

c_u_x1202_:
+1 x590
<= 6.69

c_u_x1203_:
+1 x598
<= 6.69

c_u_x1204_:
+1 x625
<= 6.69

c_u_x1205_:
+1 x621
<= 6.69

c_u_x1206_:
+1 x630
<= 6.69

c_u_x1207_:
+1 x638
<= 6.69

c_u_x1208_:
+1 x640
<= 6.69

c_u_x1209_:
+1 x634
<= 6.69

c_u_x1210_:
+1 x635
<= 6.69

c_u_x1211_:
+1 x636
<= 6.69

c_u_x1212_:
+1 x646
<= 6.69

c_u_x1213_:
+1 x650
<= 6.69

c_u_x1214_:
+1 x655
<= 6.69

c_u_x1215_:
+1 x658
<= 6.69

c_u_x1216_:
+1 x662
<= 6.69

c_u_x1217_:
+1 x663
<= 6.69

c_u_x1218_:
+1 x659
<= 6.69

c_u_x1219_:
+1 x660
<= 6.69

c_u_x1220_:
+1 x672
<= 6.69

c_u_x1221_:
+1 x673
<= 6.69

c_u_x1222_:
+1 x678
<= 6.69

c_u_x1223_:
+1 x667
<= 6.69

c_u_x1224_:
+1 x668
<= 6.69

c_u_x1225_:
+1 x664
<= 6.69

c_u_x1226_:
+1 x689
<= 6.69

c_u_x1227_:
+1 x690
<= 6.69

c_u_x1228_:
+1 x697
<= 6.69

c_u_x1229_:
+1 x693
<= 6.69

c_u_x1230_:
+1 x695
<= 6.69

c_u_x1231_:
+1 x691
<= 6.69

c_u_x1232_:
+1 x703
<= 6.69

c_u_x1233_:
+1 x708
<= 6.69

c_u_x1234_:
+1 x709
<= 6.69

c_u_x1235_:
+1 x710
<= 6.69

c_u_x1236_:
+1 x713
<= 6.69

c_l_x1237_:
+1 x193
>= -6.69

c_l_x1238_:
+1 x194
>= -6.69

c_l_x1239_:
+1 x197
>= -6.69

c_l_x1240_:
+1 x200
>= -6.69

c_l_x1241_:
+1 x198
>= -6.69

c_l_x1242_:
+1 x195
>= -6.69

c_l_x1243_:
+1 x230
>= -6.69

c_l_x1244_:
+1 x232
>= -6.69

c_l_x1245_:
+1 x236
>= -6.69

c_l_x1246_:
+1 x240
>= -6.69

c_l_x1247_:
+1 x253
>= -6.69

c_l_x1248_:
+1 x254
>= -6.69

c_l_x1249_:
+1 x246
>= -6.69

c_l_x1250_:
+1 x247
>= -6.69

c_l_x1251_:
+1 x250
>= -6.69

c_l_x1252_:
+1 x256
>= -6.69

c_l_x1253_:
+1 x248
>= -6.69

c_l_x1254_:
+1 x251
>= -6.69

c_l_x1255_:
+1 x257
>= -6.69

c_l_x1256_:
+1 x280
>= -6.69

c_l_x1257_:
+1 x273
>= -6.69

c_l_x1258_:
+1 x274
>= -6.69

c_l_x1259_:
+1 x275
>= -6.69

c_l_x1260_:
+1 x269
>= -6.69

c_l_x1261_:
+1 x270
>= -6.69

c_l_x1262_:
+1 x271
>= -6.69

c_l_x1263_:
+1 x293
>= -6.69

c_l_x1264_:
+1 x297
>= -6.69

c_l_x1265_:
+1 x323
>= -6.69

c_l_x1266_:
+1 x324
>= -6.69

c_l_x1267_:
+1 x325
>= -6.69

c_l_x1268_:
+1 x343
>= -6.69

c_l_x1269_:
+1 x348
>= -6.69

c_l_x1270_:
+1 x339
>= -6.69

c_l_x1271_:
+1 x340
>= -6.69

c_l_x1272_:
+1 x344
>= -6.69

c_l_x1273_:
+1 x341
>= -6.69

c_l_x1274_:
+1 x333
>= -6.69

c_l_x1275_:
+1 x334
>= -6.69

c_l_x1276_:
+1 x335
>= -6.69

c_l_x1277_:
+1 x346
>= -6.69

c_l_x1278_:
+1 x365
>= -6.69

c_l_x1279_:
+1 x361
>= -6.69

c_l_x1280_:
+1 x362
>= -6.69

c_l_x1281_:
+1 x370
>= -6.69

c_l_x1282_:
+1 x367
>= -6.69

c_l_x1283_:
+1 x363
>= -6.69

c_l_x1284_:
+1 x378
>= -6.69

c_l_x1285_:
+1 x383
>= -6.69

c_l_x1286_:
+1 x393
>= -6.69

c_l_x1287_:
+1 x394
>= -6.69

c_l_x1288_:
+1 x395
>= -6.69

c_l_x1289_:
+1 x402
>= -6.69

c_l_x1290_:
+1 x403
>= -6.69

c_l_x1291_:
+1 x406
>= -6.69

c_l_x1292_:
+1 x409
>= -6.69

c_l_x1293_:
+1 x404
>= -6.69

c_l_x1294_:
+1 x407
>= -6.69

c_l_x1295_:
+1 x410
>= -6.69

c_l_x1296_:
+1 x421
>= -6.69

c_l_x1297_:
+1 x427
>= -6.69

c_l_x1298_:
+1 x428
>= -6.69

c_l_x1299_:
+1 x429
>= -6.69

c_l_x1300_:
+1 x431
>= -6.69

c_l_x1301_:
+1 x432
>= -6.69

c_l_x1302_:
+1 x435
>= -6.69

c_l_x1303_:
+1 x433
>= -6.69

c_l_x1304_:
+1 x457
>= -6.69

c_l_x1305_:
+1 x458
>= -6.69

c_l_x1306_:
+1 x459
>= -6.69

c_l_x1307_:
+1 x467
>= -6.69

c_l_x1308_:
+1 x475
>= -6.69

c_l_x1309_:
+1 x479
>= -6.69

c_l_x1310_:
+1 x472
>= -6.69

c_l_x1311_:
+1 x473
>= -6.69

c_l_x1312_:
+1 x481
>= -6.69

c_l_x1313_:
+1 x500
>= -6.69

c_l_x1314_:
+1 x498
>= -6.69

c_l_x1315_:
+1 x486
>= -6.69

c_l_x1316_:
+1 x487
>= -6.69

c_l_x1317_:
+1 x490
>= -6.69

c_l_x1318_:
+1 x496
>= -6.69

c_l_x1319_:
+1 x502
>= -6.69

c_l_x1320_:
+1 x488
>= -6.69

c_l_x1321_:
+1 x492
>= -6.69

c_l_x1322_:
+1 x493
>= -6.69

c_l_x1323_:
+1 x510
>= -6.69

c_l_x1324_:
+1 x535
>= -6.69

c_l_x1325_:
+1 x536
>= -6.69

c_l_x1326_:
+1 x537
>= -6.69

c_l_x1327_:
+1 x547
>= -6.69

c_l_x1328_:
+1 x548
>= -6.69

c_l_x1329_:
+1 x551
>= -6.69

c_l_x1330_:
+1 x549
>= -6.69

c_l_x1331_:
+1 x564
>= -6.69

c_l_x1332_:
+1 x569
>= -6.69

c_l_x1333_:
+1 x560
>= -6.69

c_l_x1334_:
+1 x561
>= -6.69

c_l_x1335_:
+1 x562
>= -6.69

c_l_x1336_:
+1 x578
>= -6.69

c_l_x1337_:
+1 x579
>= -6.69

c_l_x1338_:
+1 x580
>= -6.69

c_l_x1339_:
+1 x585
>= -6.69

c_l_x1340_:
+1 x590
>= -6.69

c_l_x1341_:
+1 x598
>= -6.69

c_l_x1342_:
+1 x625
>= -6.69

c_l_x1343_:
+1 x621
>= -6.69

c_l_x1344_:
+1 x630
>= -6.69

c_l_x1345_:
+1 x638
>= -6.69

c_l_x1346_:
+1 x640
>= -6.69

c_l_x1347_:
+1 x634
>= -6.69

c_l_x1348_:
+1 x635
>= -6.69

c_l_x1349_:
+1 x636
>= -6.69

c_l_x1350_:
+1 x646
>= -6.69

c_l_x1351_:
+1 x650
>= -6.69

c_l_x1352_:
+1 x655
>= -6.69

c_l_x1353_:
+1 x658
>= -6.69

c_l_x1354_:
+1 x662
>= -6.69

c_l_x1355_:
+1 x663
>= -6.69

c_l_x1356_:
+1 x659
>= -6.69

c_l_x1357_:
+1 x660
>= -6.69

c_l_x1358_:
+1 x672
>= -6.69

c_l_x1359_:
+1 x673
>= -6.69

c_l_x1360_:
+1 x678
>= -6.69

c_l_x1361_:
+1 x667
>= -6.69

c_l_x1362_:
+1 x668
>= -6.69

c_l_x1363_:
+1 x664
>= -6.69

c_l_x1364_:
+1 x689
>= -6.69

c_l_x1365_:
+1 x690
>= -6.69

c_l_x1366_:
+1 x697
>= -6.69

c_l_x1367_:
+1 x693
>= -6.69

c_l_x1368_:
+1 x695
>= -6.69

c_l_x1369_:
+1 x691
>= -6.69

c_l_x1370_:
+1 x703
>= -6.69

c_l_x1371_:
+1 x708
>= -6.69

c_l_x1372_:
+1 x709
>= -6.69

c_l_x1373_:
+1 x710
>= -6.69

c_l_x1374_:
+1 x713
>= -6.69

c_u_x1375_:
+1 x2
-0.00042731400889410614 x206
+1 x1376
-1 x1377
<= 1

c_u_x1378_:
+1 x3
-0.0008625169206376862 x201
+1 x1379
-1 x1380
<= 1

c_u_x1381_:
+1 x4
-0.0013192751279211973 x202
+1 x1379
-1 x1382
<= 1

c_u_x1383_:
+1 x5
-0.000582415362369267 x294
+1 x1384
-1 x1385
<= 1

c_u_x1386_:
+1 x6
-0.0009553610493992244 x295
+1 x1384
-1 x1380
<= 1

c_u_x1387_:
+1 x7
-0.0010869755341465892 x263
-1 x1388
+1 x1384
<= 1

c_u_x1389_:
+1 x8
-0.001001770221188379 x380
+1 x1385
-1 x1380
<= 1

c_u_x1390_:
+1 x9
-0.0009289861905075056 x381
+1 x1385
-1 x1391
<= 1

c_u_x1392_:
+1 x10
-0.0003731097856444373 x264
-1 x1388
+1 x1393
<= 1

c_u_x1394_:
+1 x11
-0.00036933579063373273 x449
+1 x1380
-1 x1395
<= 1

c_u_x1396_:
+1 x12
-0.0005934058309398807 x450
+1 x1380
-1 x1382
<= 1

c_u_x1397_:
+1 x13
-0.0010786038858635347 x451
+1 x1380
-1 x1391
<= 1

c_u_x1398_:
+1 x14
-0.00038305850775007373 x528
+1 x1395
-1 x1382
<= 1

c_u_x1399_:
+1 x15
-0.000434093294253763 x529
+1 x1395
-1 x1391
<= 1

c_u_x1400_:
+1 x16
-0.0008171518020038374 x608
+1 x1382
-1 x1391
<= 1

c_u_x1401_:
+1 x17
-0.0014335463622848282 x265
-1 x1388
+1 x1391
<= 1

c_u_x1402_:
+1 x18
-0.00037996489413895753 x719
+1 x1403
-1 x1404
<= 1

c_u_x1405_:
+1 x19
-0.001287167409113524 x288
-1 x1406
+1 x1403
<= 1

c_u_x1407_:
+1 x20
-0.0003315480688717503 x209
-1 x1408
+1 x1404
<= 1

c_u_x1409_:
+1 x21
-0.00205510044482572 x289
-1 x1406
+1 x1404
<= 1

c_u_x1410_:
+1 x22
-0.0004692782540059366 x210
+1 x1408
-1 x1411
<= 1

c_u_x1412_:
+1 x23
-0.001169392197578252 x211
+1 x1408
-1 x1413
<= 1

c_u_x1414_:
+1 x24
-0.002106972731306645 x212
+1 x1408
-1 x1406
<= 1

c_u_x1415_:
+1 x25
-0.0009706884020041873 x213
+1 x1408
-1 x1416
<= 1

c_u_x1417_:
+1 x26
-0.0009863724678504215 x215
+1 x1411
-1 x1413
<= 1

c_u_x1418_:
+1 x27
-0.0007435153025614711 x216
+1 x1411
-1 x1416
<= 1

c_u_x1419_:
+1 x28
-0.0012716796422978234 x217
+1 x1411
-1 x1420
<= 1

c_u_x1421_:
+1 x29
-0.0005321524002037048 x219
+1 x1413
-1 x1422
<= 1

c_u_x1423_:
+1 x30
-0.0006565442743579425 x220
+1 x1413
-1 x1424
<= 1

c_u_x1425_:
+1 x31
-0.0002853071744474022 x221
+1 x1413
-1 x1420
<= 1

c_u_x1426_:
+1 x32
-0.00036454799398174436 x223
+1 x1422
-1 x1424
<= 1

c_u_x1427_:
+1 x33
-0.0005931970995264957 x224
+1 x1422
-1 x1428
<= 1

c_u_x1429_:
+1 x34
-0.0005878702866807916 x225
+1 x1422
-1 x1420
<= 1

c_u_x1430_:
+1 x35
-0.0010240770157878632 x226
+1 x1422
-1 x1431
<= 1

c_u_x1432_:
+1 x36
-0.0008362457662467888 x227
+1 x1422
-1 x1433
<= 1

c_u_x1434_:
+1 x37
-0.0010079326079292785 x228
+1 x1422
-1 x1435
<= 1

c_u_x1436_:
+1 x38
-0.0006042616115636083 x233
+1 x1424
-1 x1428
<= 1

c_u_x1437_:
+1 x39
-0.00034610502314370563 x237
+1 x1438
-1 x1435
<= 1

c_u_x1439_:
+1 x40
-0.00032605212752446317 x244
+1 x1440
-1 x1441
<= 1

c_u_x1442_:
+1 x41
-0.00045060104205725207 x241
+1 x1443
-1 x1444
<= 1

c_u_x1445_:
+1 x42
-0.0013425369114020273 x242
+1 x1443
-1 x1446
<= 1

c_u_x1447_:
+1 x43
-0.0009310533687226257 x259
+1 x1441
-1 x1444
<= 1

c_u_x1448_:
+1 x44
-0.0008794492376494226 x286
+1 x1449
-1 x1450
<= 1

c_u_x1451_:
+1 x45
-0.00029469208742978194 x281
+1 x1452
-1 x1453
<= 1

c_u_x1454_:
+1 x46
-0.0003226513594125651 x282
+1 x1452
-1 x1455
<= 1

c_u_x1456_:
+1 x47
-0.0009219948201106378 x283
+1 x1452
-1 x1457
<= 1

c_u_x1458_:
+1 x48
-0.001273107892871769 x290
+1 x1406
-1 x1416
<= 1

c_u_x1459_:
+1 x49
-0.0013189091512072597 x291
+1 x1406
-1 x1460
<= 1

c_u_x1461_:
+1 x50
-0.00036726587715315065 x300
+1 x1416
-1 x1460
<= 1

c_u_x1462_:
+1 x51
-0.0010151075885603757 x301
+1 x1416
-1 x1420
<= 1

c_u_x1463_:
+1 x52
-0.0008642925076561324 x302
+1 x1416
-1 x1464
<= 1

c_u_x1465_:
+1 x53
-0.0008604377938557466 x304
+1 x1460
-1 x1464
<= 1

c_u_x1466_:
+1 x54
-0.00047275281761041086 x306
+1 x1420
-1 x1431
<= 1

c_u_x1467_:
+1 x55
-0.001102368115302927 x307
+1 x1420
-1 x1464
<= 1

c_u_x1468_:
+1 x56
-0.0005847907112220881 x309
+1 x1431
-1 x1433
<= 1

c_u_x1469_:
+1 x57
-0.0006830569161559243 x310
+1 x1431
-1 x1470
<= 1

c_u_x1471_:
+1 x58
-0.0007771335857621503 x311
+1 x1431
-1 x1464
<= 1

c_u_x1472_:
+1 x59
-0.0009018369541574263 x312
+1 x1431
-1 x1473
<= 1

c_u_x1474_:
+1 x60
-0.000325966207978006 x314
+1 x1433
-1 x1470
<= 1

c_u_x1475_:
+1 x61
-0.0004563813239327059 x315
+1 x1433
-1 x1435
<= 1

c_u_x1476_:
+1 x62
-0.0005561932101308645 x317
+1 x1470
-1 x1435
<= 1

c_u_x1477_:
+1 x63
-0.000604016867682793 x318
+1 x1470
-1 x1473
<= 1

c_u_x1478_:
+1 x64
-0.0004795590392347418 x319
+1 x1470
-1 x1479
<= 1

c_u_x1480_:
+1 x65
-0.0010511999232423023 x320
+1 x1470
-1 x1481
<= 1

c_u_x1482_:
+1 x66
-0.0009485740952682105 x328
+1 x1483
-1 x1484
<= 1

c_u_x1485_:
+1 x67
-0.0004654470382000138 x329
+1 x1483
-1 x1446
<= 1

c_u_x1486_:
+1 x68
-0.00038092738847386666 x330
+1 x1483
-1 x1487
<= 1

c_u_x1488_:
+1 x69
-0.0009084097432466188 x350
+1 x1489
-1 x1490
<= 1

c_u_x1491_:
+1 x70
-0.0010535849028671022 x351
+1 x1489
-1 x1492
<= 1

c_u_x1493_:
+1 x71
-0.0009003909325292984 x336
+1 x1494
-1 x1446
<= 1

c_u_x1495_:
+1 x72
-0.0007907884646829079 x337
+1 x1494
-1 x1487
<= 1

c_u_x1496_:
+1 x73
-0.0007858307450073421 x356
+1 x1497
-1 x1498
<= 1

c_u_x1499_:
+1 x74
-0.0006824422646340963 x357
+1 x1497
-1 x1500
<= 1

c_u_x1501_:
+1 x75
-0.0002258766231206811 x375
+1 x1490
-1 x1492
<= 1

c_u_x1502_:
+1 x76
-0.0003514816023953601 x368
+1 x1503
-1 x1504
<= 1

c_u_x1505_:
+1 x77
-0.0004130031990739476 x371
+1 x1506
-1 x1507
<= 1

c_u_x1508_:
+1 x78
-0.0005899291808500721 x372
+1 x1506
-1 x1509
<= 1

c_u_x1510_:
+1 x79
-0.0014571801783424597 x384
+1 x1492
-1 x1507
<= 1

c_u_x1511_:
+1 x80
-0.0010220685546727558 x387
+1 x1464
-1 x1473
<= 1

c_u_x1512_:
+1 x81
-0.0013323618812931426 x388
+1 x1464
-1 x1513
<= 1

c_u_x1514_:
+1 x82
-0.00028812917135940044 x390
+1 x1473
-1 x1515
<= 1

c_u_x1516_:
+1 x83
-0.000310293326620387 x391
+1 x1473
-1 x1513
<= 1

c_u_x1517_:
+1 x84
-0.0005781905180391333 x399
+1 x1515
-1 x1513
<= 1

c_u_x1518_:
+1 x85
-0.0007607138036951532 x397
+1 x1479
-1 x1481
<= 1

c_u_x1519_:
+1 x86
-0.00021789543042172134 x413
+1 x1446
-1 x1487
<= 1

c_u_x1520_:
+1 x87
-0.0003671093771439805 x415
+1 x1521
-1 x1522
<= 1

c_u_x1523_:
+1 x88
-0.0010243485333324724 x417
+1 x1524
-1 x1525
<= 1

c_u_x1526_:
+1 x89
-0.0002506540820502003 x422
+1 x1453
-1 x1455
<= 1

c_u_x1527_:
+1 x90
-0.0009078781106618971 x424
+1 x1528
-1 x1457
<= 1

c_u_x1529_:
+1 x91
-0.001641346262786874 x425
+1 x1528
-1 x1530
<= 1

c_u_x1531_:
+1 x92
-0.001209952975093996 x437
+1 x1532
-1 x1530
<= 1

c_u_x1533_:
+1 x93
-0.0013876974158224822 x443
+1 x1513
-1 x1481
<= 1

c_u_x1534_:
+1 x94
-0.0003549356477770983 x445
+1 x1481
-1 x1535
<= 1

c_u_x1536_:
+1 x95
-0.0005985889189686011 x446
+1 x1481
-1 x1537
<= 1

c_u_x1538_:
+1 x96
-0.00024365327119150253 x453
+1 x1535
-1 x1537
<= 1

c_u_x1539_:
+1 x97
-0.00029045853923045283 x462
+1 x1498
-1 x1540
<= 1

c_u_x1541_:
+1 x98
-0.00038757512419392395 x463
+1 x1498
-1 x1509
<= 1

c_u_x1542_:
+1 x99
-0.00039337026306175395 x469
+1 x1507
-1 x1509
<= 1

c_u_x1543_:
+1 x100
-0.0008007119320154053 x476
+1 x1544
-1 x1545
<= 1

c_u_x1546_:
+1 x101
-0.0002403009954007142 x482
+1 x1547
-1 x1500
<= 1

c_u_x1548_:
+1 x102
-0.0003634842336032239 x504
+1 x1549
-1 x1550
<= 1

c_u_x1551_:
+1 x103
-0.00024095707827038307 x515
+1 x1540
-1 x1509
<= 1

c_u_x1552_:
+1 x104
-0.00041457726352728795 x522
+1 x1553
-1 x1554
<= 1

c_u_x1555_:
+1 x105
-0.0003935898602271333 x523
+1 x1553
-1 x1556
<= 1

c_u_x1557_:
+1 x106
-0.0002087404013632233 x531
+1 x1554
-1 x1558
<= 1

c_u_x1559_:
+1 x107
-0.00040105296113157135 x532
+1 x1554
-1 x1560
<= 1

c_u_x1561_:
+1 x108
-0.0005991058051318054 x539
+1 x1558
-1 x1560
<= 1

c_u_x1562_:
+1 x109
-0.0004876407597640667 x541
+1 x1563
-1 x1564
<= 1

c_u_x1565_:
+1 x110
-0.0008116016314665091 x542
+1 x1563
-1 x1566
<= 1

c_u_x1567_:
+1 x111
-0.0007214253335695368 x543
+1 x1563
-1 x1568
<= 1

c_u_x1569_:
+1 x112
-0.0006654624959327554 x555
+1 x1560
-1 x1570
<= 1

c_u_x1571_:
+1 x113
-0.0008339419175845889 x557
+1 x1572
-1 x1573
<= 1

c_u_x1574_:
+1 x114
-0.00030238834817386827 x558
+1 x1572
-1 x1575
<= 1

c_u_x1576_:
+1 x115
-0.00033169802388013713 x571
+1 x1577
-1 x1573
<= 1

c_u_x1578_:
+1 x116
-0.0008828460184717843 x565
+1 x1579
-1 x1568
<= 1

c_u_x1580_:
+1 x117
-0.0004458280518460681 x566
+1 x1579
-1 x1581
<= 1

c_u_x1582_:
+1 x118
-0.0007049650302846948 x567
+1 x1579
-1 x1583
<= 1

c_u_x1584_:
+1 x119
-0.0006912250639046739 x575
+1 x1573
-1 x1575
<= 1

c_u_x1585_:
+1 x120
-0.0013661200268425175 x586
+1 x1586
-1 x1587
<= 1

c_u_x1588_:
+1 x121
-0.0002520426354242169 x591
+1 x1589
-1 x1590
<= 1

c_u_x1591_:
+1 x122
-0.0004993295491842588 x592
+1 x1589
-1 x1592
<= 1

c_u_x1593_:
+1 x123
-0.0005038513795303866 x593
+1 x1589
-1 x1594
<= 1

c_u_x1595_:
+1 x124
-0.0015234675818019444 x594
+1 x1589
-1 x1596
<= 1

c_u_x1597_:
+1 x125
-0.0008700968642371649 x602
+1 x1587
-1 x1598
<= 1

c_u_x1599_:
+1 x126
-0.00018140133276241426 x599
+1 x1590
-1 x1592
<= 1

c_u_x1600_:
+1 x127
-0.0006140851708868216 x600
+1 x1590
-1 x1566
<= 1

c_u_x1601_:
+1 x128
-0.0007201671882543268 x605
+1 x1598
-1 x1566
<= 1

c_u_x1602_:
+1 x129
-0.00043434855144667726 x610
+1 x1592
-1 x1566
<= 1

c_u_x1603_:
+1 x130
-0.00037434857337444367 x611
+1 x1592
-1 x1604
<= 1

c_u_x1605_:
+1 x131
-0.0002656845325595422 x612
+1 x1592
-1 x1594
<= 1

c_u_x1606_:
+1 x132
-0.00022755566267972368 x614
+1 x1566
-1 x1604
<= 1

c_u_x1607_:
+1 x133
-0.00048176433362666176 x615
+1 x1566
-1 x1568
<= 1

c_u_x1608_:
+1 x134
-0.00043659987439538517 x618
+1 x1604
-1 x1609
<= 1

c_u_x1610_:
+1 x135
-0.0004623551786946605 x619
+1 x1604
-1 x1594
<= 1

c_u_x1611_:
+1 x136
-0.00023816502746643565 x622
+1 x1568
-1 x1612
<= 1

c_u_x1613_:
+1 x137
-0.0004884143904258309 x623
+1 x1568
-1 x1614
<= 1

c_u_x1615_:
+1 x138
-0.00039977020083499916 x626
+1 x1616
-1 x1617
<= 1

c_u_x1618_:
+1 x139
-0.0001505579506537668 x627
+1 x1616
-1 x1619
<= 1

c_u_x1620_:
+1 x140
-0.00025024936295939526 x632
+1 x1612
-1 x1614
<= 1

c_u_x1621_:
+1 x141
-0.0004797784587079458 x641
+1 x1622
-1 x1623
<= 1

c_u_x1624_:
+1 x142
-0.000650047017880344 x642
+1 x1622
-1 x1619
<= 1

c_u_x1625_:
+1 x143
-0.0002477745566157966 x643
+1 x1622
-1 x1626
<= 1

c_u_x1627_:
+1 x144
-0.0010772944919186767 x651
+1 x1628
-1 x1629
<= 1

c_u_x1630_:
+1 x145
-0.0013693410370401674 x652
+1 x1628
-1 x1631
<= 1

c_u_x1632_:
+1 x146
-0.0003395039070439898 x674
+1 x1633
-1 x1596
<= 1

c_u_x1634_:
+1 x147
-0.00024921225018123235 x665
+1 x1617
-1 x1619
<= 1

c_u_x1635_:
+1 x148
-0.0007697447826535037 x679
+1 x1636
-1 x1637
<= 1

c_u_x1638_:
+1 x149
-0.00039542070779235587 x669
+1 x1623
-1 x1626
<= 1

c_u_x1639_:
+1 x150
-0.0002004427747108316 x685
+1 x1629
-1 x1631
<= 1

c_u_x1640_:
+1 x151
-0.0005724318642217989 x686
+1 x1629
-1 x1637
<= 1

c_u_x1641_:
+1 x152
-0.0002906164667269957 x700
+1 x1642
-1 x1637
<= 1

c_u_x1643_:
+1 x153
-0.00048143163602954776 x706
+1 x1619
-1 x1626
<= 1

c_u_x1644_:
+1 x154
-0.0006150245551343506 x358
+1 x1497
-1 x1645
<= 1

c_u_x1646_:
+1 x155
-0.0007009694475001435 x447
+1 x1481
-1 x1647
<= 1

c_u_x1648_:
+1 x156
-0.0001023805285315424 x455
+1 x1537
-1 x1647
<= 1

c_u_x1649_:
+1 x157
-0.00044502883842063303 x464
+1 x1498
-1 x1645
<= 1

c_u_x1650_:
+1 x158
-0.0005693341750242053 x470
+1 x1507
-1 x1651
<= 1

c_u_x1652_:
+1 x159
-0.0006911794485727487 x483
+1 x1547
-1 x1653
<= 1

c_u_x1654_:
+1 x160
-0.0005459949144378448 x508
+1 x1655
-1 x1653
<= 1

c_u_x1656_:
+1 x161
-0.000821739931518216 x505
+1 x1549
-1 x1657
<= 1

c_u_x1658_:
+1 x162
-0.0008617980123222594 x511
+1 x1500
-1 x1653
<= 1

c_u_x1659_:
+1 x163
-0.0007763552630616794 x512
+1 x1500
-1 x1645
<= 1

c_u_x1660_:
+1 x164
-0.001065986309319176 x516
+1 x1540
-1 x1653
<= 1

c_u_x1661_:
+1 x165
-0.0004888435783960956 x517
+1 x1540
-1 x1645
<= 1

c_u_x1662_:
+1 x166
-0.0007579881276240991 x518
+1 x1540
-1 x1651
<= 1

c_u_x1663_:
+1 x167
-0.0006320053396690904 x520
+1 x1509
-1 x1651
<= 1

c_u_x1664_:
+1 x168
-0.0009645534000958323 x524
+1 x1553
-1 x1651
<= 1

c_u_x1665_:
+1 x169
-0.0005633836047856316 x525
+1 x1553
-1 x1666
<= 1

c_u_x1667_:
+1 x170
-0.0005371383403706759 x526
+1 x1553
-1 x1668
<= 1

c_u_x1669_:
+1 x171
-0.0005098057177281702 x533
+1 x1554
-1 x1666
<= 1

c_u_x1670_:
+1 x172
-0.0006069177433925648 x544
+1 x1563
-1 x1668
<= 1

c_u_x1671_:
+1 x173
-0.0004705576740847006 x553
+1 x1530
-1 x1666
<= 1

c_u_x1672_:
+1 x174
-0.0007928009520057088 x583
+1 x1673
-1 x1653
<= 1

c_u_x1674_:
+1 x175
-0.0004281256983656217 x587
+1 x1586
-1 x1657
<= 1

c_u_x1675_:
+1 x176
-0.0006564230513276783 x596
+1 x1676
-1 x1657
<= 1

c_u_x1677_:
+1 x177
-0.000937994328476895 x603
+1 x1587
-1 x1657
<= 1

c_u_x1678_:
+1 x178
-0.0004934755143544362 x606
+1 x1598
-1 x1668
<= 1

c_u_x1679_:
+1 x179
-0.0005892997452838681 x616
+1 x1566
-1 x1668
<= 1

c_u_x1680_:
+1 x180
-0.0007910183084665801 x653
+1 x1628
-1 x1681
<= 1

c_u_x1682_:
+1 x181
-0.0008659890092165924 x687
+1 x1629
-1 x1681
<= 1

c_u_x1683_:
+1 x182
-0.0011056043981898967 x711
+1 x1684
-1 x1681
<= 1

c_u_x1685_:
+1 x2
+0.00042731400889410614 x206
-1 x1376
+1 x1377
<= 1

c_u_x1686_:
+1 x3
+0.0008625169206376862 x201
-1 x1379
+1 x1380
<= 1

c_u_x1687_:
+1 x4
+0.0013192751279211973 x202
-1 x1379
+1 x1382
<= 1

c_u_x1688_:
+1 x5
+0.000582415362369267 x294
-1 x1384
+1 x1385
<= 1

c_u_x1689_:
+1 x6
+0.0009553610493992244 x295
-1 x1384
+1 x1380
<= 1

c_u_x1690_:
+1 x7
+0.0010869755341465892 x263
+1 x1388
-1 x1384
<= 1

c_u_x1691_:
+1 x8
+0.001001770221188379 x380
-1 x1385
+1 x1380
<= 1

c_u_x1692_:
+1 x9
+0.0009289861905075056 x381
-1 x1385
+1 x1391
<= 1

c_u_x1693_:
+1 x10
+0.0003731097856444373 x264
+1 x1388
-1 x1393
<= 1

c_u_x1694_:
+1 x11
+0.00036933579063373273 x449
-1 x1380
+1 x1395
<= 1

c_u_x1695_:
+1 x12
+0.0005934058309398807 x450
-1 x1380
+1 x1382
<= 1

c_u_x1696_:
+1 x13
+0.0010786038858635347 x451
-1 x1380
+1 x1391
<= 1

c_u_x1697_:
+1 x14
+0.00038305850775007373 x528
-1 x1395
+1 x1382
<= 1

c_u_x1698_:
+1 x15
+0.000434093294253763 x529
-1 x1395
+1 x1391
<= 1

c_u_x1699_:
+1 x16
+0.0008171518020038374 x608
-1 x1382
+1 x1391
<= 1

c_u_x1700_:
+1 x17
+0.0014335463622848282 x265
+1 x1388
-1 x1391
<= 1

c_u_x1701_:
+1 x18
+0.00037996489413895753 x719
-1 x1403
+1 x1404
<= 1

c_u_x1702_:
+1 x19
+0.001287167409113524 x288
+1 x1406
-1 x1403
<= 1

c_u_x1703_:
+1 x20
+0.0003315480688717503 x209
+1 x1408
-1 x1404
<= 1

c_u_x1704_:
+1 x21
+0.00205510044482572 x289
+1 x1406
-1 x1404
<= 1

c_u_x1705_:
+1 x22
+0.0004692782540059366 x210
-1 x1408
+1 x1411
<= 1

c_u_x1706_:
+1 x23
+0.001169392197578252 x211
-1 x1408
+1 x1413
<= 1

c_u_x1707_:
+1 x24
+0.002106972731306645 x212
-1 x1408
+1 x1406
<= 1

c_u_x1708_:
+1 x25
+0.0009706884020041873 x213
-1 x1408
+1 x1416
<= 1

c_u_x1709_:
+1 x26
+0.0009863724678504215 x215
-1 x1411
+1 x1413
<= 1

c_u_x1710_:
+1 x27
+0.0007435153025614711 x216
-1 x1411
+1 x1416
<= 1

c_u_x1711_:
+1 x28
+0.0012716796422978234 x217
-1 x1411
+1 x1420
<= 1

c_u_x1712_:
+1 x29
+0.0005321524002037048 x219
-1 x1413
+1 x1422
<= 1

c_u_x1713_:
+1 x30
+0.0006565442743579425 x220
-1 x1413
+1 x1424
<= 1

c_u_x1714_:
+1 x31
+0.0002853071744474022 x221
-1 x1413
+1 x1420
<= 1

c_u_x1715_:
+1 x32
+0.00036454799398174436 x223
-1 x1422
+1 x1424
<= 1

c_u_x1716_:
+1 x33
+0.0005931970995264957 x224
-1 x1422
+1 x1428
<= 1

c_u_x1717_:
+1 x34
+0.0005878702866807916 x225
-1 x1422
+1 x1420
<= 1

c_u_x1718_:
+1 x35
+0.0010240770157878632 x226
-1 x1422
+1 x1431
<= 1

c_u_x1719_:
+1 x36
+0.0008362457662467888 x227
-1 x1422
+1 x1433
<= 1

c_u_x1720_:
+1 x37
+0.0010079326079292785 x228
-1 x1422
+1 x1435
<= 1

c_u_x1721_:
+1 x38
+0.0006042616115636083 x233
-1 x1424
+1 x1428
<= 1

c_u_x1722_:
+1 x39
+0.00034610502314370563 x237
-1 x1438
+1 x1435
<= 1

c_u_x1723_:
+1 x40
+0.00032605212752446317 x244
-1 x1440
+1 x1441
<= 1

c_u_x1724_:
+1 x41
+0.00045060104205725207 x241
-1 x1443
+1 x1444
<= 1

c_u_x1725_:
+1 x42
+0.0013425369114020273 x242
-1 x1443
+1 x1446
<= 1

c_u_x1726_:
+1 x43
+0.0009310533687226257 x259
-1 x1441
+1 x1444
<= 1

c_u_x1727_:
+1 x44
+0.0008794492376494226 x286
-1 x1449
+1 x1450
<= 1

c_u_x1728_:
+1 x45
+0.00029469208742978194 x281
-1 x1452
+1 x1453
<= 1

c_u_x1729_:
+1 x46
+0.0003226513594125651 x282
-1 x1452
+1 x1455
<= 1

c_u_x1730_:
+1 x47
+0.0009219948201106378 x283
-1 x1452
+1 x1457
<= 1

c_u_x1731_:
+1 x48
+0.001273107892871769 x290
-1 x1406
+1 x1416
<= 1

c_u_x1732_:
+1 x49
+0.0013189091512072597 x291
-1 x1406
+1 x1460
<= 1

c_u_x1733_:
+1 x50
+0.00036726587715315065 x300
-1 x1416
+1 x1460
<= 1

c_u_x1734_:
+1 x51
+0.0010151075885603757 x301
-1 x1416
+1 x1420
<= 1

c_u_x1735_:
+1 x52
+0.0008642925076561324 x302
-1 x1416
+1 x1464
<= 1

c_u_x1736_:
+1 x53
+0.0008604377938557466 x304
-1 x1460
+1 x1464
<= 1

c_u_x1737_:
+1 x54
+0.00047275281761041086 x306
-1 x1420
+1 x1431
<= 1

c_u_x1738_:
+1 x55
+0.001102368115302927 x307
-1 x1420
+1 x1464
<= 1

c_u_x1739_:
+1 x56
+0.0005847907112220881 x309
-1 x1431
+1 x1433
<= 1

c_u_x1740_:
+1 x57
+0.0006830569161559243 x310
-1 x1431
+1 x1470
<= 1

c_u_x1741_:
+1 x58
+0.0007771335857621503 x311
-1 x1431
+1 x1464
<= 1

c_u_x1742_:
+1 x59
+0.0009018369541574263 x312
-1 x1431
+1 x1473
<= 1

c_u_x1743_:
+1 x60
+0.000325966207978006 x314
-1 x1433
+1 x1470
<= 1

c_u_x1744_:
+1 x61
+0.0004563813239327059 x315
-1 x1433
+1 x1435
<= 1

c_u_x1745_:
+1 x62
+0.0005561932101308645 x317
-1 x1470
+1 x1435
<= 1

c_u_x1746_:
+1 x63
+0.000604016867682793 x318
-1 x1470
+1 x1473
<= 1

c_u_x1747_:
+1 x64
+0.0004795590392347418 x319
-1 x1470
+1 x1479
<= 1

c_u_x1748_:
+1 x65
+0.0010511999232423023 x320
-1 x1470
+1 x1481
<= 1

c_u_x1749_:
+1 x66
+0.0009485740952682105 x328
-1 x1483
+1 x1484
<= 1

c_u_x1750_:
+1 x67
+0.0004654470382000138 x329
-1 x1483
+1 x1446
<= 1

c_u_x1751_:
+1 x68
+0.00038092738847386666 x330
-1 x1483
+1 x1487
<= 1

c_u_x1752_:
+1 x69
+0.0009084097432466188 x350
-1 x1489
+1 x1490
<= 1

c_u_x1753_:
+1 x70
+0.0010535849028671022 x351
-1 x1489
+1 x1492
<= 1

c_u_x1754_:
+1 x71
+0.0009003909325292984 x336
-1 x1494
+1 x1446
<= 1

c_u_x1755_:
+1 x72
+0.0007907884646829079 x337
-1 x1494
+1 x1487
<= 1

c_u_x1756_:
+1 x73
+0.0007858307450073421 x356
-1 x1497
+1 x1498
<= 1

c_u_x1757_:
+1 x74
+0.0006824422646340963 x357
-1 x1497
+1 x1500
<= 1

c_u_x1758_:
+1 x75
+0.0002258766231206811 x375
-1 x1490
+1 x1492
<= 1

c_u_x1759_:
+1 x76
+0.0003514816023953601 x368
-1 x1503
+1 x1504
<= 1

c_u_x1760_:
+1 x77
+0.0004130031990739476 x371
-1 x1506
+1 x1507
<= 1

c_u_x1761_:
+1 x78
+0.0005899291808500721 x372
-1 x1506
+1 x1509
<= 1

c_u_x1762_:
+1 x79
+0.0014571801783424597 x384
-1 x1492
+1 x1507
<= 1

c_u_x1763_:
+1 x80
+0.0010220685546727558 x387
-1 x1464
+1 x1473
<= 1

c_u_x1764_:
+1 x81
+0.0013323618812931426 x388
-1 x1464
+1 x1513
<= 1

c_u_x1765_:
+1 x82
+0.00028812917135940044 x390
-1 x1473
+1 x1515
<= 1

c_u_x1766_:
+1 x83
+0.000310293326620387 x391
-1 x1473
+1 x1513
<= 1

c_u_x1767_:
+1 x84
+0.0005781905180391333 x399
-1 x1515
+1 x1513
<= 1

c_u_x1768_:
+1 x85
+0.0007607138036951532 x397
-1 x1479
+1 x1481
<= 1

c_u_x1769_:
+1 x86
+0.00021789543042172134 x413
-1 x1446
+1 x1487
<= 1

c_u_x1770_:
+1 x87
+0.0003671093771439805 x415
-1 x1521
+1 x1522
<= 1

c_u_x1771_:
+1 x88
+0.0010243485333324724 x417
-1 x1524
+1 x1525
<= 1

c_u_x1772_:
+1 x89
+0.0002506540820502003 x422
-1 x1453
+1 x1455
<= 1

c_u_x1773_:
+1 x90
+0.0009078781106618971 x424
-1 x1528
+1 x1457
<= 1

c_u_x1774_:
+1 x91
+0.001641346262786874 x425
-1 x1528
+1 x1530
<= 1

c_u_x1775_:
+1 x92
+0.001209952975093996 x437
-1 x1532
+1 x1530
<= 1

c_u_x1776_:
+1 x93
+0.0013876974158224822 x443
-1 x1513
+1 x1481
<= 1

c_u_x1777_:
+1 x94
+0.0003549356477770983 x445
-1 x1481
+1 x1535
<= 1

c_u_x1778_:
+1 x95
+0.0005985889189686011 x446
-1 x1481
+1 x1537
<= 1

c_u_x1779_:
+1 x96
+0.00024365327119150253 x453
-1 x1535
+1 x1537
<= 1

c_u_x1780_:
+1 x97
+0.00029045853923045283 x462
-1 x1498
+1 x1540
<= 1

c_u_x1781_:
+1 x98
+0.00038757512419392395 x463
-1 x1498
+1 x1509
<= 1

c_u_x1782_:
+1 x99
+0.00039337026306175395 x469
-1 x1507
+1 x1509
<= 1

c_u_x1783_:
+1 x100
+0.0008007119320154053 x476
-1 x1544
+1 x1545
<= 1

c_u_x1784_:
+1 x101
+0.0002403009954007142 x482
-1 x1547
+1 x1500
<= 1

c_u_x1785_:
+1 x102
+0.0003634842336032239 x504
-1 x1549
+1 x1550
<= 1

c_u_x1786_:
+1 x103
+0.00024095707827038307 x515
-1 x1540
+1 x1509
<= 1

c_u_x1787_:
+1 x104
+0.00041457726352728795 x522
-1 x1553
+1 x1554
<= 1

c_u_x1788_:
+1 x105
+0.0003935898602271333 x523
-1 x1553
+1 x1556
<= 1

c_u_x1789_:
+1 x106
+0.0002087404013632233 x531
-1 x1554
+1 x1558
<= 1

c_u_x1790_:
+1 x107
+0.00040105296113157135 x532
-1 x1554
+1 x1560
<= 1

c_u_x1791_:
+1 x108
+0.0005991058051318054 x539
-1 x1558
+1 x1560
<= 1

c_u_x1792_:
+1 x109
+0.0004876407597640667 x541
-1 x1563
+1 x1564
<= 1

c_u_x1793_:
+1 x110
+0.0008116016314665091 x542
-1 x1563
+1 x1566
<= 1

c_u_x1794_:
+1 x111
+0.0007214253335695368 x543
-1 x1563
+1 x1568
<= 1

c_u_x1795_:
+1 x112
+0.0006654624959327554 x555
-1 x1560
+1 x1570
<= 1

c_u_x1796_:
+1 x113
+0.0008339419175845889 x557
-1 x1572
+1 x1573
<= 1

c_u_x1797_:
+1 x114
+0.00030238834817386827 x558
-1 x1572
+1 x1575
<= 1

c_u_x1798_:
+1 x115
+0.00033169802388013713 x571
-1 x1577
+1 x1573
<= 1

c_u_x1799_:
+1 x116
+0.0008828460184717843 x565
-1 x1579
+1 x1568
<= 1

c_u_x1800_:
+1 x117
+0.0004458280518460681 x566
-1 x1579
+1 x1581
<= 1

c_u_x1801_:
+1 x118
+0.0007049650302846948 x567
-1 x1579
+1 x1583
<= 1

c_u_x1802_:
+1 x119
+0.0006912250639046739 x575
-1 x1573
+1 x1575
<= 1

c_u_x1803_:
+1 x120
+0.0013661200268425175 x586
-1 x1586
+1 x1587
<= 1

c_u_x1804_:
+1 x121
+0.0002520426354242169 x591
-1 x1589
+1 x1590
<= 1

c_u_x1805_:
+1 x122
+0.0004993295491842588 x592
-1 x1589
+1 x1592
<= 1

c_u_x1806_:
+1 x123
+0.0005038513795303866 x593
-1 x1589
+1 x1594
<= 1

c_u_x1807_:
+1 x124
+0.0015234675818019444 x594
-1 x1589
+1 x1596
<= 1

c_u_x1808_:
+1 x125
+0.0008700968642371649 x602
-1 x1587
+1 x1598
<= 1

c_u_x1809_:
+1 x126
+0.00018140133276241426 x599
-1 x1590
+1 x1592
<= 1

c_u_x1810_:
+1 x127
+0.0006140851708868216 x600
-1 x1590
+1 x1566
<= 1

c_u_x1811_:
+1 x128
+0.0007201671882543268 x605
-1 x1598
+1 x1566
<= 1

c_u_x1812_:
+1 x129
+0.00043434855144667726 x610
-1 x1592
+1 x1566
<= 1

c_u_x1813_:
+1 x130
+0.00037434857337444367 x611
-1 x1592
+1 x1604
<= 1

c_u_x1814_:
+1 x131
+0.0002656845325595422 x612
-1 x1592
+1 x1594
<= 1

c_u_x1815_:
+1 x132
+0.00022755566267972368 x614
-1 x1566
+1 x1604
<= 1

c_u_x1816_:
+1 x133
+0.00048176433362666176 x615
-1 x1566
+1 x1568
<= 1

c_u_x1817_:
+1 x134
+0.00043659987439538517 x618
-1 x1604
+1 x1609
<= 1

c_u_x1818_:
+1 x135
+0.0004623551786946605 x619
-1 x1604
+1 x1594
<= 1

c_u_x1819_:
+1 x136
+0.00023816502746643565 x622
-1 x1568
+1 x1612
<= 1

c_u_x1820_:
+1 x137
+0.0004884143904258309 x623
-1 x1568
+1 x1614
<= 1

c_u_x1821_:
+1 x138
+0.00039977020083499916 x626
-1 x1616
+1 x1617
<= 1

c_u_x1822_:
+1 x139
+0.0001505579506537668 x627
-1 x1616
+1 x1619
<= 1

c_u_x1823_:
+1 x140
+0.00025024936295939526 x632
-1 x1612
+1 x1614
<= 1

c_u_x1824_:
+1 x141
+0.0004797784587079458 x641
-1 x1622
+1 x1623
<= 1

c_u_x1825_:
+1 x142
+0.000650047017880344 x642
-1 x1622
+1 x1619
<= 1

c_u_x1826_:
+1 x143
+0.0002477745566157966 x643
-1 x1622
+1 x1626
<= 1

c_u_x1827_:
+1 x144
+0.0010772944919186767 x651
-1 x1628
+1 x1629
<= 1

c_u_x1828_:
+1 x145
+0.0013693410370401674 x652
-1 x1628
+1 x1631
<= 1

c_u_x1829_:
+1 x146
+0.0003395039070439898 x674
-1 x1633
+1 x1596
<= 1

c_u_x1830_:
+1 x147
+0.00024921225018123235 x665
-1 x1617
+1 x1619
<= 1

c_u_x1831_:
+1 x148
+0.0007697447826535037 x679
-1 x1636
+1 x1637
<= 1

c_u_x1832_:
+1 x149
+0.00039542070779235587 x669
-1 x1623
+1 x1626
<= 1

c_u_x1833_:
+1 x150
+0.0002004427747108316 x685
-1 x1629
+1 x1631
<= 1

c_u_x1834_:
+1 x151
+0.0005724318642217989 x686
-1 x1629
+1 x1637
<= 1

c_u_x1835_:
+1 x152
+0.0002906164667269957 x700
-1 x1642
+1 x1637
<= 1

c_u_x1836_:
+1 x153
+0.00048143163602954776 x706
-1 x1619
+1 x1626
<= 1

c_u_x1837_:
+1 x154
+0.0006150245551343506 x358
-1 x1497
+1 x1645
<= 1

c_u_x1838_:
+1 x155
+0.0007009694475001435 x447
-1 x1481
+1 x1647
<= 1

c_u_x1839_:
+1 x156
+0.0001023805285315424 x455
-1 x1537
+1 x1647
<= 1

c_u_x1840_:
+1 x157
+0.00044502883842063303 x464
-1 x1498
+1 x1645
<= 1

c_u_x1841_:
+1 x158
+0.0005693341750242053 x470
-1 x1507
+1 x1651
<= 1

c_u_x1842_:
+1 x159
+0.0006911794485727487 x483
-1 x1547
+1 x1653
<= 1

c_u_x1843_:
+1 x160
+0.0005459949144378448 x508
-1 x1655
+1 x1653
<= 1

c_u_x1844_:
+1 x161
+0.000821739931518216 x505
-1 x1549
+1 x1657
<= 1

c_u_x1845_:
+1 x162
+0.0008617980123222594 x511
-1 x1500
+1 x1653
<= 1

c_u_x1846_:
+1 x163
+0.0007763552630616794 x512
-1 x1500
+1 x1645
<= 1

c_u_x1847_:
+1 x164
+0.001065986309319176 x516
-1 x1540
+1 x1653
<= 1

c_u_x1848_:
+1 x165
+0.0004888435783960956 x517
-1 x1540
+1 x1645
<= 1

c_u_x1849_:
+1 x166
+0.0007579881276240991 x518
-1 x1540
+1 x1651
<= 1

c_u_x1850_:
+1 x167
+0.0006320053396690904 x520
-1 x1509
+1 x1651
<= 1

c_u_x1851_:
+1 x168
+0.0009645534000958323 x524
-1 x1553
+1 x1651
<= 1

c_u_x1852_:
+1 x169
+0.0005633836047856316 x525
-1 x1553
+1 x1666
<= 1

c_u_x1853_:
+1 x170
+0.0005371383403706759 x526
-1 x1553
+1 x1668
<= 1

c_u_x1854_:
+1 x171
+0.0005098057177281702 x533
-1 x1554
+1 x1666
<= 1

c_u_x1855_:
+1 x172
+0.0006069177433925648 x544
-1 x1563
+1 x1668
<= 1

c_u_x1856_:
+1 x173
+0.0004705576740847006 x553
-1 x1530
+1 x1666
<= 1

c_u_x1857_:
+1 x174
+0.0007928009520057088 x583
-1 x1673
+1 x1653
<= 1

c_u_x1858_:
+1 x175
+0.0004281256983656217 x587
-1 x1586
+1 x1657
<= 1

c_u_x1859_:
+1 x176
+0.0006564230513276783 x596
-1 x1676
+1 x1657
<= 1

c_u_x1860_:
+1 x177
+0.000937994328476895 x603
-1 x1587
+1 x1657
<= 1

c_u_x1861_:
+1 x178
+0.0004934755143544362 x606
-1 x1598
+1 x1668
<= 1

c_u_x1862_:
+1 x179
+0.0005892997452838681 x616
-1 x1566
+1 x1668
<= 1

c_u_x1863_:
+1 x180
+0.0007910183084665801 x653
-1 x1628
+1 x1681
<= 1

c_u_x1864_:
+1 x181
+0.0008659890092165924 x687
-1 x1629
+1 x1681
<= 1

c_u_x1865_:
+1 x182
+0.0011056043981898967 x711
-1 x1684
+1 x1681
<= 1

c_e_x1866_:
-4.63933134988736e-05 x193
-1 x1867
+1 x1868
= 0

c_e_x1869_:
-0.00043153188201982824 x194
+1 x1867
-1 x1870
= 0

c_e_x1871_:
-4.378619034197399e-06 x197
+1 x1870
-1 x1872
= 0

c_e_x1873_:
-0.00022077483120191713 x200
-1 x1379
+1 x1868
= 0

c_e_x1874_:
-0.00021420166853751676 x198
-1 x1870
+1 x1376
= 0

c_e_x1875_:
-0.0003842210045585702 x195
+1 x1867
-1 x1876
= 0

c_e_x1877_:
-0.00021690095314729545 x230
-1 x1878
+1 x1879
= 0

c_e_x1880_:
-0.00040623292256175016 x232
-1 x1424
+1 x1879
= 0

c_e_x1881_:
-0.00029576785292344287 x236
-1 x1438
+1 x1428
= 0

c_e_x1882_:
-0.00015739050471176845 x240
+1 x1443
-1 x1440
= 0

c_e_x1883_:
-4.082410275485401e-05 x253
-1 x1884
+1 x1885
= 0

c_e_x1886_:
-0.00029070509298907915 x254
+1 x1884
-1 x1388
= 0

c_e_x1887_:
-0.00023829799575708884 x246
-1 x1888
+1 x1441
= 0

c_e_x1889_:
-0.00020524251989343956 x247
+1 x1888
-1 x1890
= 0

c_e_x1891_:
-6.0214780976904826e-05 x250
+1 x1890
-1 x1884
= 0

c_e_x1892_:
-6.484418288993008e-06 x256
-1 x1893
+1 x1894
= 0

c_e_x1895_:
-3.851479234560176e-05 x248
-1 x1888
+1 x1893
= 0

c_e_x1896_:
-0.0001007833364226967 x251
+1 x1890
-1 x1897
= 0

c_e_x1898_:
-0.0002872556998936232 x257
+1 x1893
-1 x1899
= 0

c_e_x1900_:
-0.00021971184733722522 x280
-1 x1452
+1 x1901
= 0

c_e_x1902_:
-5.6475122209017995e-05 x273
-1 x1903
+1 x1901
= 0

c_e_x1904_:
-0.0002752161625997231 x274
+1 x1903
-1 x1905
= 0

c_e_x1906_:
-0.0002683748691364611 x275
+1 x1903
-1 x1907
= 0

c_e_x1908_:
-0.0002706654302019542 x269
-1 x1909
+1 x1907
= 0

c_e_x1910_:
-0.00027508164895565895 x270
+1 x1909
-1 x1449
= 0

c_e_x1911_:
-1.0850722586526734e-05 x271
-1 x1909
+1 x1912
= 0

c_e_x1913_:
-0.0004191575783376752 x293
+1 x1384
-1 x1914
= 0

c_e_x1915_:
-0.00028972608380950027 x297
-1 x1377
+1 x1914
= 0

c_e_x1916_:
-0.00022825492711432775 x323
-1 x1917
+1 x1444
= 0

c_e_x1918_:
-7.012073677157436e-05 x324
+1 x1917
-1 x1919
= 0

c_e_x1920_:
-0.0002502032546673959 x325
+1 x1917
-1 x1483
= 0

c_e_x1921_:
-0.00015123194259930307 x343
+1 x1922
-1 x1923
= 0

c_e_x1924_:
-0.00031890444166590183 x348
+1 x1923
-1 x1489
= 0

c_e_x1925_:
-0.0003257530696966405 x339
-1 x1484
+1 x1922
= 0

c_e_x1926_:
-6.956743522367503e-05 x340
+1 x1484
-1 x1927
= 0

c_e_x1928_:
-0.00014653189855517445 x344
+1 x1922
-1 x1929
= 0

c_e_x1930_:
-7.376735542280623e-05 x341
+1 x1484
-1 x1931
= 0

c_e_x1932_:
-3.615364937604667e-05 x333
-1 x1494
+1 x1931
= 0

c_e_x1933_:
-9.537053331158831e-05 x334
+1 x1494
-1 x1934
= 0

c_e_x1935_:
-0.0003339218904569259 x335
+1 x1494
-1 x1936
= 0

c_e_x1937_:
-0.00038002511551699694 x346
+1 x1936
-1 x1497
= 0

c_e_x1938_:
-0.0004283105729472557 x365
-1 x1939
+1 x1490
= 0

c_e_x1940_:
-8.065199078761882e-05 x361
-1 x1941
+1 x1939
= 0

c_e_x1942_:
-1.4467957972388818e-05 x362
+1 x1941
-1 x1943
= 0

c_e_x1944_:
-0.0001366637070774818 x370
-1 x1506
+1 x1945
= 0

c_e_x1946_:
-0.00016085897839570196 x367
-1 x1503
+1 x1945
= 0

c_e_x1947_:
-0.00018085339646925586 x363
-1 x1941
+1 x1503
= 0

c_e_x1948_:
-0.00013154759025831622 x378
-1 x1393
+1 x1385
= 0

c_e_x1949_:
-0.0003802729578545263 x383
+1 x1492
-1 x1450
= 0

c_e_x1950_:
-0.00023755355113084863 x393
-1 x1951
+1 x1479
= 0

c_e_x1952_:
-2.3819207894688125e-05 x394
+1 x1951
-1 x1515
= 0

c_e_x1953_:
-0.00015420157608942442 x395
+1 x1951
-1 x1954
= 0

c_e_x1955_:
-0.000186076883875849 x402
-1 x1956
+1 x1521
= 0

c_e_x1957_:
-2.095910034395614e-05 x403
+1 x1956
-1 x1958
= 0

c_e_x1959_:
-0.00016067469149141572 x406
+1 x1958
-1 x1960
= 0

c_e_x1961_:
-2.059897324511834e-05 x409
+1 x1960
-1 x1962
= 0

c_e_x1963_:
-0.0003513102835183113 x404
-1 x1956
+1 x1964
= 0

c_e_x1965_:
-8.732475545655794e-06 x407
+1 x1958
-1 x1524
= 0

c_e_x1966_:
-0.0002551358575332276 x410
+1 x1960
-1 x1446
= 0

c_e_x1967_:
-0.00020506797296828102 x421
+1 x1453
-1 x1528
= 0

c_e_x1968_:
-0.00025674562153052194 x427
+1 x1969
-1 x1455
= 0

c_e_x1970_:
-1.3401954713813471e-05 x428
+1 x1969
-1 x1971
= 0

c_e_x1972_:
-7.073551357958205e-05 x429
+1 x1969
-1 x1973
= 0

c_e_x1974_:
-0.00012011540712334827 x431
-1 x1975
+1 x1973
= 0

c_e_x1976_:
-6.033873451713612e-06 x432
+1 x1975
-1 x1977
= 0

c_e_x1978_:
-0.00019371803701138273 x435
-1 x1973
+1 x1532
= 0

c_e_x1979_:
-0.00015726041083792254 x433
-1 x1975
+1 x1980
= 0

c_e_x1981_:
-0.00014028203271623777 x457
-1 x1982
+1 x1504
= 0

c_e_x1983_:
-1.6962466532497873e-05 x458
+1 x1982
-1 x1984
= 0

c_e_x1985_:
-0.00035956676433560427 x459
-1 x1982
+1 x1498
= 0

c_e_x1986_:
-0.00036038056159870384 x467
-1 x1457
+1 x1507
= 0

c_e_x1987_:
-0.0003861524073929607 x475
+1 x1544
-1 x1988
= 0

c_e_x1989_:
-0.00027869817204307555 x479
-1 x1990
+1 x1988
= 0

c_e_x1991_:
-0.0004512990189331 x472
-1 x1522
+1 x1990
= 0

c_e_x1992_:
-0.00034092642154356993 x473
+1 x1522
-1 x1993
= 0

c_e_x1994_:
-0.00036684776271393005 x481
+1 x1547
-1 x1988
= 0

c_e_x1995_:
-0.00028922161238199054 x500
-1 x1996
+1 x1655
= 0

c_e_x1997_:
-0.0001917434936788163 x498
-1 x1998
+1 x1996
= 0

c_e_x1999_:
-0.00011136231691882557 x486
-1 x2000
+1 x1998
= 0

c_e_x2001_:
-0.00027211193067312414 x487
+1 x2000
-1 x2002
= 0

c_e_x2003_:
-0.0002960026402903292 x490
+1 x2002
-1 x2004
= 0

c_e_x2005_:
-0.00024328761396489888 x496
+1 x2004
-1 x1545
= 0

c_e_x2006_:
-0.00031630460560462065 x502
+1 x2007
-1 x1549
= 0

c_e_x2008_:
-8.284655563327416e-05 x488
-1 x2000
+1 x2009
= 0

c_e_x2010_:
-0.0002784249273441358 x492
-1 x2011
+1 x2009
= 0

c_e_x2012_:
-0.00034483014967840304 x493
+1 x2011
-1 x2007
= 0

c_e_x2013_:
-0.0002703727756799359 x510
-1 x1500
+1 x1525
= 0

c_e_x2014_:
-0.00024060336782272382 x535
-1 x2015
+1 x1558
= 0

c_e_x2016_:
-0.00019985126247784214 x536
+1 x2015
-1 x1563
= 0

c_e_x2017_:
-1.1717898856574451e-05 x537
-1 x2015
+1 x1556
= 0

c_e_x2018_:
-0.00031241704462314616 x547
-1 x2019
+1 x1530
= 0

c_e_x2020_:
-0.00040483178999464997 x548
+1 x2019
-1 x2021
= 0

c_e_x2022_:
-0.00015126786628624786 x551
+1 x2021
-1 x1572
= 0

c_e_x2023_:
-0.00025021910491691856 x549
-1 x2019
+1 x1560
= 0

c_e_x2024_:
-0.00030314877994837015 x564
+1 x1579
-1 x1564
= 0

c_e_x2025_:
-0.00041216459003754657 x569
-1 x2026
+1 x1564
= 0

c_e_x2027_:
-0.00014189231867663696 x560
-1 x2028
+1 x2026
= 0

c_e_x2029_:
-0.00012010283949464307 x561
+1 x2028
-1 x1570
= 0

c_e_x2030_:
-0.0001570860611328737 x562
-1 x2028
+1 x1577
= 0

c_e_x2031_:
-0.00010187934939336292 x578
+1 x2032
-1 x1550
= 0

c_e_x2033_:
-0.000264158071569389 x579
-1 x2032
+1 x2034
= 0

c_e_x2035_:
-0.00015265178864262566 x580
+1 x2032
-1 x1673
= 0

c_e_x2036_:
-0.00023459432701335113 x585
-1 x1586
+1 x2034
= 0

c_e_x2037_:
-0.0002683631559048878 x590
-1 x1589
+1 x1676
= 0

c_e_x2038_:
-0.00028840131817035603 x598
-1 x1590
+1 x1587
= 0

c_e_x2039_:
-0.0002698202873628155 x625
+1 x1616
-1 x1609
= 0

c_e_x2040_:
-0.0002482599649554337 x621
-1 x1568
+1 x1609
= 0

c_e_x2041_:
-0.0003805712269229539 x630
+1 x1581
-1 x1612
= 0

c_e_x2042_:
-0.0004903702596262846 x638
+1 x1614
-1 x1622
= 0

c_e_x2043_:
-0.0002787869626971111 x640
+1 x1622
-1 x2044
= 0

c_e_x2045_:
-0.0002145122198678684 x634
-1 x2046
+1 x1614
= 0

c_e_x2047_:
-0.00014277513452244368 x635
+1 x2046
-1 x1583
= 0

c_e_x2048_:
-0.0003094808006976179 x636
+1 x2046
-1 x2049
= 0

c_e_x2050_:
-0.00030461863820286956 x646
+1 x2049
-1 x2051
= 0

c_e_x2052_:
-0.00022646464231924223 x650
-1 x1628
+1 x2053
= 0

c_e_x2054_:
-0.000261293685880585 x655
-1 x2055
+1 x2053
= 0

c_e_x2056_:
-0.00018243396389958278 x658
+1 x2057
-1 x1594
= 0

c_e_x2058_:
-0.00033903700421866485 x662
-1 x1617
+1 x1594
= 0

c_e_x2059_:
-6.339663229931747e-05 x663
+1 x1617
-1 x2060
= 0

c_e_x2061_:
-3.478670036154257e-05 x659
+1 x2057
-1 x2062
= 0

c_e_x2063_:
-0.0002156544421557418 x660
+1 x2057
-1 x2064
= 0

c_e_x2065_:
-0.00028826960667056086 x672
-1 x1633
+1 x2064
= 0

c_e_x2066_:
-0.00022078372187879744 x673
+1 x1633
-1 x2067
= 0

c_e_x2068_:
-0.0004499606769508163 x678
-1 x1636
+1 x2069
= 0

c_e_x2070_:
-0.00025131452089708587 x667
+1 x1623
-1 x2069
= 0

c_e_x2071_:
-0.0002413887650115345 x668
+1 x1623
-1 x2072
= 0

c_e_x2073_:
-0.00020197550178670555 x664
-1 x1617
+1 x2072
= 0

c_e_x2074_:
-9.024265666432315e-06 x689
-1 x2075
+1 x2076
= 0

c_e_x2077_:
-0.00021592289831328087 x690
+1 x2075
-1 x1642
= 0

c_e_x2078_:
-0.00039254791380504247 x697
-1 x1631
+1 x1642
= 0

c_e_x2079_:
-0.00020874840243543887 x693
+1 x2076
-1 x2080
= 0

c_e_x2081_:
-0.00022142060529915482 x695
-1 x1596
+1 x2080
= 0

c_e_x2082_:
-0.00011938572152022342 x691
-1 x2075
+1 x2083
= 0

c_e_x2084_:
-0.00016911418790809996 x703
+1 x2085
-1 x1391
= 0

c_e_x2086_:
-9.645607593622072e-05 x708
-1 x1684
+1 x2087
= 0

c_e_x2088_:
-0.00016862561139095825 x709
+1 x1684
-1 x1637
= 0

c_e_x2089_:
-8.892211600924893e-05 x710
+1 x1684
-1 x2090
= 0

c_e_x2091_:
-0.00026834762323578606 x713
-1 x2087
+1 x2092
= 0

c_u_x2093_:
+0.07999999999999996 x183
-1 x1653
<= -0.9

c_u_x2094_:
+0.09999999999999998 x184
-1 x1645
<= -0.9

c_u_x2095_:
+0.09999999999999998 x185
-1 x1651
<= -0.9

c_u_x2096_:
+0.09999999999999998 x186
-1 x1666
<= -0.9

c_u_x2097_:
+0.06999999999999995 x187
-1 x1668
<= -0.9

c_u_x2098_:
+0.09999999999999998 x188
-1 x1681
<= -0.9

c_u_x2099_:
+0.07999999999999996 x189
-1 x1657
<= -0.9

c_u_x2100_:
+0.08999999999999997 x190
-1 x1647
<= -0.9

c_u_x2101_:
+1 x1653
<= 0.98

c_u_x2102_:
+1 x1645
<= 1.0

c_u_x2103_:
+1 x1651
<= 1.0

c_u_x2104_:
+1 x1666
<= 1.0

c_u_x2105_:
+1 x1668
<= 0.97

c_u_x2106_:
+1 x1681
<= 1.0

c_u_x2107_:
+1 x1657
<= 0.98

c_u_x2108_:
+1 x1647
<= 0.99

c_l_x2109_:
+1 x1867
>= 0.9

c_l_x2110_:
+1 x1870
>= 0.9

c_l_x2111_:
+1 x1379
>= 0.9

c_l_x2112_:
+1 x1868
>= 0.9

c_l_x2113_:
+1 x1872
>= 0.9

c_l_x2114_:
+1 x1376
>= 0.9

c_l_x2115_:
+1 x1876
>= 0.9

c_l_x2116_:
+1 x1408
>= 0.9

c_l_x2117_:
+1 x1411
>= 0.9

c_l_x2118_:
+1 x1413
>= 0.9

c_l_x2119_:
+1 x1422
>= 0.9

c_l_x2120_:
+1 x1878
>= 0.9

c_l_x2121_:
+1 x1424
>= 0.9

c_l_x2122_:
+1 x1879
>= 0.9

c_l_x2123_:
+1 x1438
>= 0.9

c_l_x2124_:
+1 x1428
>= 0.9

c_l_x2125_:
+1 x1443
>= 0.9

c_l_x2126_:
+1 x1440
>= 0.9

c_l_x2127_:
+1 x1888
>= 0.9

c_l_x2128_:
+1 x1890
>= 0.9

c_l_x2129_:
+1 x1884
>= 0.9

c_l_x2130_:
+1 x1893
>= 0.9

c_l_x2131_:
+1 x1441
>= 0.9

c_l_x2132_:
+1 x1894
>= 0.9

c_l_x2133_:
+1 x1899
>= 0.9

c_l_x2134_:
+1 x1388
>= 0.9

c_l_x2135_:
+1 x1885
>= 0.9

c_l_x2136_:
+1 x1897
>= 0.9

c_l_x2137_:
+1 x1909
>= 0.9

c_l_x2138_:
+1 x1903
>= 0.9

c_l_x2139_:
+1 x1907
>= 0.9

c_l_x2140_:
+1 x1905
>= 0.9

c_l_x2141_:
+1 x1912
>= 0.9

c_l_x2142_:
+1 x1452
>= 0.9

c_l_x2143_:
+1 x1901
>= 0.9

c_l_x2144_:
+1 x1449
>= 0.9

c_l_x2145_:
+1 x1406
>= 0.9

c_l_x2146_:
+1 x1384
>= 0.9

c_l_x2147_:
+1 x1377
>= 0.9

c_l_x2148_:
+1 x1914
>= 0.9

c_l_x2149_:
+1 x1416
>= 0.9

c_l_x2150_:
+1 x1460
>= 0.9

c_l_x2151_:
+1 x1420
>= 0.9

c_l_x2152_:
+1 x1431
>= 0.9

c_l_x2153_:
+1 x1433
>= 0.9

c_l_x2154_:
+1 x1470
>= 0.9

c_l_x2155_:
+1 x1435
>= 0.9

c_l_x2156_:
+1 x1917
>= 0.9

c_l_x2157_:
+1 x1444
>= 0.9

c_l_x2158_:
+1 x1483
>= 0.9

c_l_x2159_:
+1 x1919
>= 0.9

c_l_x2160_:
+1 x1494
>= 0.9

c_l_x2161_:
+1 x1484
>= 0.9

c_l_x2162_:
+1 x1922
>= 0.9

c_l_x2163_:
+1 x1936
>= 0.9

c_l_x2164_:
+1 x1923
>= 0.9

c_l_x2165_:
+1 x1489
>= 0.9

c_l_x2166_:
+1 x1931
>= 0.9

c_l_x2167_:
+1 x1934
>= 0.9

c_l_x2168_:
+1 x1927
>= 0.9

c_l_x2169_:
+1 x1497
>= 0.9

c_l_x2170_:
+1 x1929
>= 0.9

c_l_x2171_:
+1 x1941
>= 0.9

c_l_x2172_:
+1 x1939
>= 0.9

c_l_x2173_:
+1 x1503
>= 0.9

c_l_x2174_:
+1 x1506
>= 0.9

c_l_x2175_:
+1 x1945
>= 0.9

c_l_x2176_:
+1 x1490
>= 0.9

c_l_x2177_:
+1 x1943
>= 0.9

c_l_x2178_:
+1 x1393
>= 0.9

c_l_x2179_:
+1 x1385
>= 0.9

c_l_x2180_:
+1 x1492
>= 0.9

c_l_x2181_:
+1 x1450
>= 0.9

c_l_x2182_:
+1 x1464
>= 0.9

c_l_x2183_:
+1 x1473
>= 0.9

c_l_x2184_:
+1 x1951
>= 0.9

c_l_x2185_:
+1 x1479
>= 0.9

c_l_x2186_:
+1 x1515
>= 0.9

c_l_x2187_:
+1 x1954
>= 0.9

c_l_x2188_:
+1 x1956
>= 0.9

c_l_x2189_:
+1 x1958
>= 0.9

c_l_x2190_:
+1 x1960
>= 0.9

c_l_x2191_:
+1 x1964
>= 0.9

c_l_x2192_:
+1 x1446
>= 0.9

c_l_x2193_:
+1 x1521
>= 0.9

c_l_x2194_:
+1 x1524
>= 0.9

c_l_x2195_:
+1 x1962
>= 0.9

c_l_x2196_:
+1 x1487
>= 0.9

c_l_x2197_:
+1 x1453
>= 0.9

c_l_x2198_:
+1 x1528
>= 0.9

c_l_x2199_:
+1 x1969
>= 0.9

c_l_x2200_:
+1 x1975
>= 0.9

c_l_x2201_:
+1 x1973
>= 0.9

c_l_x2202_:
+1 x1532
>= 0.9

c_l_x2203_:
+1 x1980
>= 0.9

c_l_x2204_:
+1 x1977
>= 0.9

c_l_x2205_:
+1 x1455
>= 0.9

c_l_x2206_:
+1 x1971
>= 0.9

c_l_x2207_:
+1 x1513
>= 0.9

c_l_x2208_:
+1 x1481
>= 0.9

c_l_x2209_:
+1 x1380
>= 0.9

c_l_x2210_:
+1 x1535
>= 0.9

c_l_x2211_:
+1 x1537
>= 0.9

c_l_x2212_:
+1 x1982
>= 0.9

c_l_x2213_:
+1 x1504
>= 0.9

c_l_x2214_:
+1 x1498
>= 0.9

c_l_x2215_:
+1 x1984
>= 0.9

c_l_x2216_:
+1 x1457
>= 0.9

c_l_x2217_:
+1 x1507
>= 0.9

c_l_x2218_:
+1 x1522
>= 0.9

c_l_x2219_:
+1 x1544
>= 0.9

c_l_x2220_:
+1 x1993
>= 0.9

c_l_x2221_:
+1 x1990
>= 0.9

c_l_x2222_:
+1 x1547
>= 0.9

c_l_x2223_:
+1 x1988
>= 0.9

c_l_x2224_:
+1 x2000
>= 0.9

c_l_x2225_:
+1 x2002
>= 0.9

c_l_x2226_:
+1 x2011
>= 0.9

c_l_x2227_:
+1 x2009
>= 0.9

c_l_x2228_:
+1 x2004
>= 0.9

c_l_x2229_:
+1 x1998
>= 0.9

c_l_x2230_:
+1 x1996
>= 0.9

c_l_x2231_:
+1 x2007
>= 0.9

c_l_x2232_:
+1 x1549
>= 0.9

c_l_x2233_:
+1 x1545
>= 0.9

c_l_x2234_:
+1 x1655
>= 0.9

c_l_x2235_:
+1 x1500
>= 0.9

c_l_x2236_:
+1 x1525
>= 0.9

c_l_x2237_:
+1 x1540
>= 0.9

c_l_x2238_:
+1 x1509
>= 0.9

c_l_x2239_:
+1 x1553
>= 0.9

c_l_x2240_:
+1 x1395
>= 0.9

c_l_x2241_:
+1 x1554
>= 0.9

c_l_x2242_:
+1 x2015
>= 0.9

c_l_x2243_:
+1 x1558
>= 0.9

c_l_x2244_:
+1 x1563
>= 0.9

c_l_x2245_:
+1 x1556
>= 0.9

c_l_x2246_:
+1 x2019
>= 0.9

c_l_x2247_:
+1 x2021
>= 0.9

c_l_x2248_:
+1 x1530
>= 0.9

c_l_x2249_:
+1 x1560
>= 0.9

c_l_x2250_:
+1 x1572
>= 0.9

c_l_x2251_:
+1 x2028
>= 0.9

c_l_x2252_:
+1 x1579
>= 0.9

c_l_x2253_:
+1 x2026
>= 0.9

c_l_x2254_:
+1 x1577
>= 0.9

c_l_x2255_:
+1 x1564
>= 0.9

c_l_x2256_:
+1 x1570
>= 0.9

c_l_x2257_:
+1 x1573
>= 0.9

c_l_x2258_:
+1 x1575
>= 0.9

c_l_x2259_:
+1 x2032
>= 0.9

c_l_x2260_:
+1 x1550
>= 0.9

c_l_x2261_:
+1 x1673
>= 0.9

c_l_x2262_:
+1 x1586
>= 0.9

c_l_x2263_:
+1 x2034
>= 0.9

c_l_x2264_:
+1 x1589
>= 0.9

c_l_x2265_:
+1 x1676
>= 0.9

c_l_x2266_:
+1 x1590
>= 0.9

c_l_x2267_:
+1 x1587
>= 0.9

c_l_x2268_:
+1 x1598
>= 0.9

c_l_x2269_:
+1 x1382
>= 0.9

c_l_x2270_:
+1 x1592
>= 0.9

c_l_x2271_:
+1 x1566
>= 0.9

c_l_x2272_:
+1 x1604
>= 0.9

c_l_x2273_:
+1 x1568
>= 0.9

c_l_x2274_:
+1 x1616
>= 0.9

c_l_x2275_:
+1 x1609
>= 0.9

c_l_x2276_:
+1 x1581
>= 0.9

c_l_x2277_:
+1 x1612
>= 0.9

c_l_x2278_:
+1 x2046
>= 0.9

c_l_x2279_:
+1 x1614
>= 0.9

c_l_x2280_:
+1 x1622
>= 0.9

c_l_x2281_:
+1 x2044
>= 0.9

c_l_x2282_:
+1 x2049
>= 0.9

c_l_x2283_:
+1 x1583
>= 0.9

c_l_x2284_:
+1 x2051
>= 0.9

c_l_x2285_:
+1 x1628
>= 0.9

c_l_x2286_:
+1 x2055
>= 0.9

c_l_x2287_:
+1 x2053
>= 0.9

c_l_x2288_:
+1 x2057
>= 0.9

c_l_x2289_:
+1 x1617
>= 0.9

c_l_x2290_:
+1 x1623
>= 0.9

c_l_x2291_:
+1 x2072
>= 0.9

c_l_x2292_:
+1 x1633
>= 0.9

c_l_x2293_:
+1 x2060
>= 0.9

c_l_x2294_:
+1 x2067
>= 0.9

c_l_x2295_:
+1 x1636
>= 0.9

c_l_x2296_:
+1 x2064
>= 0.9

c_l_x2297_:
+1 x2062
>= 0.9

c_l_x2298_:
+1 x1594
>= 0.9

c_l_x2299_:
+1 x2069
>= 0.9

c_l_x2300_:
+1 x1629
>= 0.9

c_l_x2301_:
+1 x2075
>= 0.9

c_l_x2302_:
+1 x2076
>= 0.9

c_l_x2303_:
+1 x1596
>= 0.9

c_l_x2304_:
+1 x1631
>= 0.9

c_l_x2305_:
+1 x2083
>= 0.9

c_l_x2306_:
+1 x1642
>= 0.9

c_l_x2307_:
+1 x2080
>= 0.9

c_l_x2308_:
+1 x2085
>= 0.9

c_l_x2309_:
+1 x1391
>= 0.9

c_l_x2310_:
+1 x1619
>= 0.9

c_l_x2311_:
+1 x1684
>= 0.9

c_l_x2312_:
+1 x2087
>= 0.9

c_l_x2313_:
+1 x2090
>= 0.9

c_l_x2314_:
+1 x2092
>= 0.9

c_l_x2315_:
+1 x1637
>= 0.9

c_l_x2316_:
+1 x1626
>= 0.9

c_l_x2317_:
+1 x1403
>= 0.9

c_l_x2318_:
+1 x1404
>= 0.9

c_u_x2319_:
-2.0 x183
+1 x722
<= 0

c_u_x2320_:
-5.0 x184
+1 x724
<= 0

c_u_x2321_:
-5.0 x185
+1 x726
<= 0

c_u_x2322_:
-5.0 x186
+1 x728
<= 0

c_u_x2323_:
-2.0 x187
+1 x730
<= 0

c_u_x2324_:
-10.0 x188
+1 x732
<= 0

c_u_x2325_:
-2.0 x189
+1 x734
<= 0

c_u_x2326_:
-5.0 x190
+1 x736
<= 0

c_e_x2327_:
+1 x722
+1 x724
+1 x726
+1 x728
+1 x730
+1 x732
+1 x734
+1 x736
= 3.7144000000000035

bounds
   0 <= x2 <= 1
   0 <= x3 <= 1
   0 <= x4 <= 1
   0 <= x5 <= 1
   0 <= x6 <= 1
   0 <= x7 <= 1
   0 <= x8 <= 1
   0 <= x9 <= 1
   0 <= x10 <= 1
   0 <= x11 <= 1
   0 <= x12 <= 1
   0 <= x13 <= 1
   0 <= x14 <= 1
   0 <= x15 <= 1
   0 <= x16 <= 1
   0 <= x17 <= 1
   0 <= x18 <= 1
   0 <= x19 <= 1
   0 <= x20 <= 1
   0 <= x21 <= 1
   0 <= x22 <= 1
   0 <= x23 <= 1
   0 <= x24 <= 1
   0 <= x25 <= 1
   0 <= x26 <= 1
   0 <= x27 <= 1
   0 <= x28 <= 1
   0 <= x29 <= 1
   0 <= x30 <= 1
   0 <= x31 <= 1
   0 <= x32 <= 1
   0 <= x33 <= 1
   0 <= x34 <= 1
   0 <= x35 <= 1
   0 <= x36 <= 1
   0 <= x37 <= 1
   0 <= x38 <= 1
   0 <= x39 <= 1
   0 <= x40 <= 1
   0 <= x41 <= 1
   0 <= x42 <= 1
   0 <= x43 <= 1
   0 <= x44 <= 1
   0 <= x45 <= 1
   0 <= x46 <= 1
   0 <= x47 <= 1
   0 <= x48 <= 1
   0 <= x49 <= 1
   0 <= x50 <= 1
   0 <= x51 <= 1
   0 <= x52 <= 1
   0 <= x53 <= 1
   0 <= x54 <= 1
   0 <= x55 <= 1
   0 <= x56 <= 1
   0 <= x57 <= 1
   0 <= x58 <= 1
   0 <= x59 <= 1
   0 <= x60 <= 1
   0 <= x61 <= 1
   0 <= x62 <= 1
   0 <= x63 <= 1
   0 <= x64 <= 1
   0 <= x65 <= 1
   0 <= x66 <= 1
   0 <= x67 <= 1
   0 <= x68 <= 1
   0 <= x69 <= 1
   0 <= x70 <= 1
   0 <= x71 <= 1
   0 <= x72 <= 1
   0 <= x73 <= 1
   0 <= x74 <= 1
   0 <= x75 <= 1
   0 <= x76 <= 1
   0 <= x77 <= 1
   0 <= x78 <= 1
   0 <= x79 <= 1
   0 <= x80 <= 1
   0 <= x81 <= 1
   0 <= x82 <= 1
   0 <= x83 <= 1
   0 <= x84 <= 1
   0 <= x85 <= 1
   0 <= x86 <= 1
   0 <= x87 <= 1
   0 <= x88 <= 1
   0 <= x89 <= 1
   0 <= x90 <= 1
   0 <= x91 <= 1
   0 <= x92 <= 1
   0 <= x93 <= 1
   0 <= x94 <= 1
   0 <= x95 <= 1
   0 <= x96 <= 1
   0 <= x97 <= 1
   0 <= x98 <= 1
   0 <= x99 <= 1
   0 <= x100 <= 1
   0 <= x101 <= 1
   0 <= x102 <= 1
   0 <= x103 <= 1
   0 <= x104 <= 1
   0 <= x105 <= 1
   0 <= x106 <= 1
   0 <= x107 <= 1
   0 <= x108 <= 1
   0 <= x109 <= 1
   0 <= x110 <= 1
   0 <= x111 <= 1
   0 <= x112 <= 1
   0 <= x113 <= 1
   0 <= x114 <= 1
   0 <= x115 <= 1
   0 <= x116 <= 1
   0 <= x117 <= 1
   0 <= x118 <= 1
   0 <= x119 <= 1
   0 <= x120 <= 1
   0 <= x121 <= 1
   0 <= x122 <= 1
   0 <= x123 <= 1
   0 <= x124 <= 1
   0 <= x125 <= 1
   0 <= x126 <= 1
   0 <= x127 <= 1
   0 <= x128 <= 1
   0 <= x129 <= 1
   0 <= x130 <= 1
   0 <= x131 <= 1
   0 <= x132 <= 1
   0 <= x133 <= 1
   0 <= x134 <= 1
   0 <= x135 <= 1
   0 <= x136 <= 1
   0 <= x137 <= 1
   0 <= x138 <= 1
   0 <= x139 <= 1
   0 <= x140 <= 1
   0 <= x141 <= 1
   0 <= x142 <= 1
   0 <= x143 <= 1
   0 <= x144 <= 1
   0 <= x145 <= 1
   0 <= x146 <= 1
   0 <= x147 <= 1
   0 <= x148 <= 1
   0 <= x149 <= 1
   0 <= x150 <= 1
   0 <= x151 <= 1
   0 <= x152 <= 1
   0 <= x153 <= 1
   0 <= x154 <= 1
   0 <= x155 <= 1
   0 <= x156 <= 1
   0 <= x157 <= 1
   0 <= x158 <= 1
   0 <= x159 <= 1
   0 <= x160 <= 1
   0 <= x161 <= 1
   0 <= x162 <= 1
   0 <= x163 <= 1
   0 <= x164 <= 1
   0 <= x165 <= 1
   0 <= x166 <= 1
   0 <= x167 <= 1
   0 <= x168 <= 1
   0 <= x169 <= 1
   0 <= x170 <= 1
   0 <= x171 <= 1
   0 <= x172 <= 1
   0 <= x173 <= 1
   0 <= x174 <= 1
   0 <= x175 <= 1
   0 <= x176 <= 1
   0 <= x177 <= 1
   0 <= x178 <= 1
   0 <= x179 <= 1
   0 <= x180 <= 1
   0 <= x181 <= 1
   0 <= x182 <= 1
   0 <= x183 <= 1
   0 <= x184 <= 1
   0 <= x185 <= 1
   0 <= x186 <= 1
   0 <= x187 <= 1
   0 <= x188 <= 1
   0 <= x189 <= 1
   0 <= x190 <= 1
   -inf <= x193 <= +inf
   -inf <= x194 <= +inf
   -inf <= x197 <= +inf
   -inf <= x200 <= +inf
   -inf <= x198 <= +inf
   -inf <= x195 <= +inf
   -inf <= x230 <= +inf
   -inf <= x232 <= +inf
   -inf <= x236 <= +inf
   -inf <= x240 <= +inf
   -inf <= x253 <= +inf
   -inf <= x254 <= +inf
   -inf <= x246 <= +inf
   -inf <= x247 <= +inf
   -inf <= x250 <= +inf
   -inf <= x256 <= +inf
   -inf <= x248 <= +inf
   -inf <= x251 <= +inf
   -inf <= x257 <= +inf
   -inf <= x280 <= +inf
   -inf <= x273 <= +inf
   -inf <= x274 <= +inf
   -inf <= x275 <= +inf
   -inf <= x269 <= +inf
   -inf <= x270 <= +inf
   -inf <= x271 <= +inf
   -inf <= x293 <= +inf
   -inf <= x297 <= +inf
   -inf <= x323 <= +inf
   -inf <= x324 <= +inf
   -inf <= x325 <= +inf
   -inf <= x343 <= +inf
   -inf <= x348 <= +inf
   -inf <= x339 <= +inf
   -inf <= x340 <= +inf
   -inf <= x344 <= +inf
   -inf <= x341 <= +inf
   -inf <= x333 <= +inf
   -inf <= x334 <= +inf
   -inf <= x335 <= +inf
   -inf <= x346 <= +inf
   -inf <= x365 <= +inf
   -inf <= x361 <= +inf
   -inf <= x362 <= +inf
   -inf <= x370 <= +inf
   -inf <= x367 <= +inf
   -inf <= x363 <= +inf
   -inf <= x378 <= +inf
   -inf <= x383 <= +inf
   -inf <= x393 <= +inf
   -inf <= x394 <= +inf
   -inf <= x395 <= +inf
   -inf <= x402 <= +inf
   -inf <= x403 <= +inf
   -inf <= x406 <= +inf
   -inf <= x409 <= +inf
   -inf <= x404 <= +inf
   -inf <= x407 <= +inf
   -inf <= x410 <= +inf
   -inf <= x421 <= +inf
   -inf <= x427 <= +inf
   -inf <= x428 <= +inf
   -inf <= x429 <= +inf
   -inf <= x431 <= +inf
   -inf <= x432 <= +inf
   -inf <= x435 <= +inf
   -inf <= x433 <= +inf
   -inf <= x457 <= +inf
   -inf <= x458 <= +inf
   -inf <= x459 <= +inf
   -inf <= x467 <= +inf
   -inf <= x475 <= +inf
   -inf <= x479 <= +inf
   -inf <= x472 <= +inf
   -inf <= x473 <= +inf
   -inf <= x481 <= +inf
   -inf <= x500 <= +inf
   -inf <= x498 <= +inf
   -inf <= x486 <= +inf
   -inf <= x487 <= +inf
   -inf <= x490 <= +inf
   -inf <= x496 <= +inf
   -inf <= x502 <= +inf
   -inf <= x488 <= +inf
   -inf <= x492 <= +inf
   -inf <= x493 <= +inf
   -inf <= x510 <= +inf
   -inf <= x535 <= +inf
   -inf <= x536 <= +inf
   -inf <= x537 <= +inf
   -inf <= x547 <= +inf
   -inf <= x548 <= +inf
   -inf <= x551 <= +inf
   -inf <= x549 <= +inf
   -inf <= x564 <= +inf
   -inf <= x569 <= +inf
   -inf <= x560 <= +inf
   -inf <= x561 <= +inf
   -inf <= x562 <= +inf
   -inf <= x578 <= +inf
   -inf <= x579 <= +inf
   -inf <= x580 <= +inf
   -inf <= x585 <= +inf
   -inf <= x590 <= +inf
   -inf <= x598 <= +inf
   -inf <= x625 <= +inf
   -inf <= x621 <= +inf
   -inf <= x630 <= +inf
   -inf <= x638 <= +inf
   -inf <= x640 <= +inf
   -inf <= x634 <= +inf
   -inf <= x635 <= +inf
   -inf <= x636 <= +inf
   -inf <= x646 <= +inf
   -inf <= x650 <= +inf
   -inf <= x655 <= +inf
   -inf <= x658 <= +inf
   -inf <= x662 <= +inf
   -inf <= x663 <= +inf
   -inf <= x659 <= +inf
   -inf <= x660 <= +inf
   -inf <= x672 <= +inf
   -inf <= x673 <= +inf
   -inf <= x678 <= +inf
   -inf <= x667 <= +inf
   -inf <= x668 <= +inf
   -inf <= x664 <= +inf
   -inf <= x689 <= +inf
   -inf <= x690 <= +inf
   -inf <= x697 <= +inf
   -inf <= x693 <= +inf
   -inf <= x695 <= +inf
   -inf <= x691 <= +inf
   -inf <= x703 <= +inf
   -inf <= x708 <= +inf
   -inf <= x709 <= +inf
   -inf <= x710 <= +inf
   -inf <= x713 <= +inf
   -inf <= x206 <= +inf
   -inf <= x201 <= +inf
   -inf <= x202 <= +inf
   -inf <= x294 <= +inf
   -inf <= x295 <= +inf
   -inf <= x263 <= +inf
   -inf <= x380 <= +inf
   -inf <= x381 <= +inf
   -inf <= x264 <= +inf
   -inf <= x449 <= +inf
   -inf <= x450 <= +inf
   -inf <= x451 <= +inf
   -inf <= x528 <= +inf
   -inf <= x529 <= +inf
   -inf <= x608 <= +inf
   -inf <= x265 <= +inf
   -inf <= x719 <= +inf
   -inf <= x288 <= +inf
   -inf <= x209 <= +inf
   -inf <= x289 <= +inf
   -inf <= x210 <= +inf
   -inf <= x211 <= +inf
   -inf <= x212 <= +inf
   -inf <= x213 <= +inf
   -inf <= x215 <= +inf
   -inf <= x216 <= +inf
   -inf <= x217 <= +inf
   -inf <= x219 <= +inf
   -inf <= x220 <= +inf
   -inf <= x221 <= +inf
   -inf <= x223 <= +inf
   -inf <= x224 <= +inf
   -inf <= x225 <= +inf
   -inf <= x226 <= +inf
   -inf <= x227 <= +inf
   -inf <= x228 <= +inf
   -inf <= x233 <= +inf
   -inf <= x237 <= +inf
   -inf <= x244 <= +inf
   -inf <= x241 <= +inf
   -inf <= x242 <= +inf
   -inf <= x259 <= +inf
   -inf <= x286 <= +inf
   -inf <= x281 <= +inf
   -inf <= x282 <= +inf
   -inf <= x283 <= +inf
   -inf <= x290 <= +inf
   -inf <= x291 <= +inf
   -inf <= x300 <= +inf
   -inf <= x301 <= +inf
   -inf <= x302 <= +inf
   -inf <= x304 <= +inf
   -inf <= x306 <= +inf
   -inf <= x307 <= +inf
   -inf <= x309 <= +inf
   -inf <= x310 <= +inf
   -inf <= x311 <= +inf
   -inf <= x312 <= +inf
   -inf <= x314 <= +inf
   -inf <= x315 <= +inf
   -inf <= x317 <= +inf
   -inf <= x318 <= +inf
   -inf <= x319 <= +inf
   -inf <= x320 <= +inf
   -inf <= x328 <= +inf
   -inf <= x329 <= +inf
   -inf <= x330 <= +inf
   -inf <= x350 <= +inf
   -inf <= x351 <= +inf
   -inf <= x336 <= +inf
   -inf <= x337 <= +inf
   -inf <= x356 <= +inf
   -inf <= x357 <= +inf
   -inf <= x375 <= +inf
   -inf <= x368 <= +inf
   -inf <= x371 <= +inf
   -inf <= x372 <= +inf
   -inf <= x384 <= +inf
   -inf <= x387 <= +inf
   -inf <= x388 <= +inf
   -inf <= x390 <= +inf
   -inf <= x391 <= +inf
   -inf <= x399 <= +inf
   -inf <= x397 <= +inf
   -inf <= x413 <= +inf
   -inf <= x415 <= +inf
   -inf <= x417 <= +inf
   -inf <= x422 <= +inf
   -inf <= x424 <= +inf
   -inf <= x425 <= +inf
   -inf <= x437 <= +inf
   -inf <= x443 <= +inf
   -inf <= x445 <= +inf
   -inf <= x446 <= +inf
   -inf <= x453 <= +inf
   -inf <= x462 <= +inf
   -inf <= x463 <= +inf
   -inf <= x469 <= +inf
   -inf <= x476 <= +inf
   -inf <= x482 <= +inf
   -inf <= x504 <= +inf
   -inf <= x515 <= +inf
   -inf <= x522 <= +inf
   -inf <= x523 <= +inf
   -inf <= x531 <= +inf
   -inf <= x532 <= +inf
   -inf <= x539 <= +inf
   -inf <= x541 <= +inf
   -inf <= x542 <= +inf
   -inf <= x543 <= +inf
   -inf <= x555 <= +inf
   -inf <= x557 <= +inf
   -inf <= x558 <= +inf
   -inf <= x571 <= +inf
   -inf <= x565 <= +inf
   -inf <= x566 <= +inf
   -inf <= x567 <= +inf
   -inf <= x575 <= +inf
   -inf <= x586 <= +inf
   -inf <= x591 <= +inf
   -inf <= x592 <= +inf
   -inf <= x593 <= +inf
   -inf <= x594 <= +inf
   -inf <= x602 <= +inf
   -inf <= x599 <= +inf
   -inf <= x600 <= +inf
   -inf <= x605 <= +inf
   -inf <= x610 <= +inf
   -inf <= x611 <= +inf
   -inf <= x612 <= +inf
   -inf <= x614 <= +inf
   -inf <= x615 <= +inf
   -inf <= x618 <= +inf
   -inf <= x619 <= +inf
   -inf <= x622 <= +inf
   -inf <= x623 <= +inf
   -inf <= x626 <= +inf
   -inf <= x627 <= +inf
   -inf <= x632 <= +inf
   -inf <= x641 <= +inf
   -inf <= x642 <= +inf
   -inf <= x643 <= +inf
   -inf <= x651 <= +inf
   -inf <= x652 <= +inf
   -inf <= x674 <= +inf
   -inf <= x665 <= +inf
   -inf <= x679 <= +inf
   -inf <= x669 <= +inf
   -inf <= x685 <= +inf
   -inf <= x686 <= +inf
   -inf <= x700 <= +inf
   -inf <= x706 <= +inf
   -inf <= x358 <= +inf
   -inf <= x447 <= +inf
   -inf <= x455 <= +inf
   -inf <= x464 <= +inf
   -inf <= x470 <= +inf
   -inf <= x483 <= +inf
   -inf <= x508 <= +inf
   -inf <= x505 <= +inf
   -inf <= x511 <= +inf
   -inf <= x512 <= +inf
   -inf <= x516 <= +inf
   -inf <= x517 <= +inf
   -inf <= x518 <= +inf
   -inf <= x520 <= +inf
   -inf <= x524 <= +inf
   -inf <= x525 <= +inf
   -inf <= x526 <= +inf
   -inf <= x533 <= +inf
   -inf <= x544 <= +inf
   -inf <= x553 <= +inf
   -inf <= x583 <= +inf
   -inf <= x587 <= +inf
   -inf <= x596 <= +inf
   -inf <= x603 <= +inf
   -inf <= x606 <= +inf
   -inf <= x616 <= +inf
   -inf <= x653 <= +inf
   -inf <= x687 <= +inf
   -inf <= x711 <= +inf
   0 <= x722 <= +inf
   0 <= x724 <= +inf
   0 <= x726 <= +inf
   0 <= x728 <= +inf
   0 <= x730 <= +inf
   0 <= x732 <= +inf
   0 <= x734 <= +inf
   0 <= x736 <= +inf
   0 <= x1867 <= +inf
   0 <= x1870 <= +inf
   0 <= x1379 <= +inf
   0 <= x1868 <= +inf
   0 <= x1872 <= +inf
   0 <= x1376 <= +inf
   0 <= x1876 <= +inf
   0 <= x1408 <= +inf
   0 <= x1411 <= +inf
   0 <= x1413 <= +inf
   0 <= x1422 <= +inf
   0 <= x1878 <= +inf
   0 <= x1424 <= +inf
   0 <= x1879 <= +inf
   0 <= x1438 <= +inf
   0 <= x1428 <= +inf
   0 <= x1443 <= +inf
   0 <= x1440 <= +inf
   0 <= x1888 <= +inf
   0 <= x1890 <= +inf
   0 <= x1884 <= +inf
   0 <= x1893 <= +inf
   0 <= x1441 <= +inf
   0 <= x1894 <= +inf
   0 <= x1899 <= +inf
   0 <= x1388 <= +inf
   0 <= x1885 <= +inf
   0 <= x1897 <= +inf
   0 <= x1909 <= +inf
   0 <= x1903 <= +inf
   0 <= x1907 <= +inf
   0 <= x1905 <= +inf
   0 <= x1912 <= +inf
   0 <= x1452 <= +inf
   0 <= x1901 <= +inf
   0 <= x1449 <= +inf
   0 <= x1406 <= +inf
   0 <= x1384 <= +inf
   0 <= x1377 <= +inf
   0 <= x1914 <= +inf
   0 <= x1416 <= +inf
   0 <= x1460 <= +inf
   0 <= x1420 <= +inf
   0 <= x1431 <= +inf
   0 <= x1433 <= +inf
   0 <= x1470 <= +inf
   0 <= x1435 <= +inf
   0 <= x1917 <= +inf
   0 <= x1444 <= +inf
   0 <= x1483 <= +inf
   0 <= x1919 <= +inf
   0 <= x1494 <= +inf
   0 <= x1484 <= +inf
   0 <= x1922 <= +inf
   0 <= x1936 <= +inf
   0 <= x1923 <= +inf
   0 <= x1489 <= +inf
   0 <= x1931 <= +inf
   0 <= x1934 <= +inf
   0 <= x1927 <= +inf
   0 <= x1497 <= +inf
   0 <= x1929 <= +inf
   0 <= x1941 <= +inf
   0 <= x1939 <= +inf
   0 <= x1503 <= +inf
   0 <= x1506 <= +inf
   0 <= x1945 <= +inf
   0 <= x1490 <= +inf
   0 <= x1943 <= +inf
   0 <= x1393 <= +inf
   0 <= x1385 <= +inf
   0 <= x1492 <= +inf
   0 <= x1450 <= +inf
   0 <= x1464 <= +inf
   0 <= x1473 <= +inf
   0 <= x1951 <= +inf
   0 <= x1479 <= +inf
   0 <= x1515 <= +inf
   0 <= x1954 <= +inf
   0 <= x1956 <= +inf
   0 <= x1958 <= +inf
   0 <= x1960 <= +inf
   0 <= x1964 <= +inf
   0 <= x1446 <= +inf
   0 <= x1521 <= +inf
   0 <= x1524 <= +inf
   0 <= x1962 <= +inf
   0 <= x1487 <= +inf
   0 <= x1453 <= +inf
   0 <= x1528 <= +inf
   0 <= x1969 <= +inf
   0 <= x1975 <= +inf
   0 <= x1973 <= +inf
   0 <= x1532 <= +inf
   0 <= x1980 <= +inf
   0 <= x1977 <= +inf
   0 <= x1455 <= +inf
   0 <= x1971 <= +inf
   0 <= x1513 <= +inf
   0 <= x1481 <= +inf
   0 <= x1380 <= +inf
   0 <= x1535 <= +inf
   0 <= x1537 <= +inf
   0 <= x1982 <= +inf
   0 <= x1504 <= +inf
   0 <= x1498 <= +inf
   0 <= x1984 <= +inf
   0 <= x1457 <= +inf
   0 <= x1507 <= +inf
   0 <= x1522 <= +inf
   0 <= x1544 <= +inf
   0 <= x1993 <= +inf
   0 <= x1990 <= +inf
   0 <= x1547 <= +inf
   0 <= x1988 <= +inf
   0 <= x2000 <= +inf
   0 <= x2002 <= +inf
   0 <= x2011 <= +inf
   0 <= x2009 <= +inf
   0 <= x2004 <= +inf
   0 <= x1998 <= +inf
   0 <= x1996 <= +inf
   0 <= x2007 <= +inf
   0 <= x1549 <= +inf
   0 <= x1545 <= +inf
   0 <= x1655 <= +inf
   0 <= x1500 <= +inf
   0 <= x1525 <= +inf
   0 <= x1540 <= +inf
   0 <= x1509 <= +inf
   0 <= x1553 <= +inf
   0 <= x1395 <= +inf
   0 <= x1554 <= +inf
   0 <= x2015 <= +inf
   0 <= x1558 <= +inf
   0 <= x1563 <= +inf
   0 <= x1556 <= +inf
   0 <= x2019 <= +inf
   0 <= x2021 <= +inf
   0 <= x1530 <= +inf
   0 <= x1560 <= +inf
   0 <= x1572 <= +inf
   0 <= x2028 <= +inf
   0 <= x1579 <= +inf
   0 <= x2026 <= +inf
   0 <= x1577 <= +inf
   0 <= x1564 <= +inf
   0 <= x1570 <= +inf
   0 <= x1573 <= +inf
   0 <= x1575 <= +inf
   0 <= x2032 <= +inf
   0 <= x1550 <= +inf
   0 <= x1673 <= +inf
   0 <= x1586 <= +inf
   0 <= x2034 <= +inf
   0 <= x1589 <= +inf
   0 <= x1676 <= +inf
   0 <= x1590 <= +inf
   0 <= x1587 <= +inf
   0 <= x1598 <= +inf
   0 <= x1382 <= +inf
   0 <= x1592 <= +inf
   0 <= x1566 <= +inf
   0 <= x1604 <= +inf
   0 <= x1568 <= +inf
   0 <= x1616 <= +inf
   0 <= x1609 <= +inf
   0 <= x1581 <= +inf
   0 <= x1612 <= +inf
   0 <= x2046 <= +inf
   0 <= x1614 <= +inf
   0 <= x1622 <= +inf
   0 <= x2044 <= +inf
   0 <= x2049 <= +inf
   0 <= x1583 <= +inf
   0 <= x2051 <= +inf
   0 <= x1628 <= +inf
   0 <= x2055 <= +inf
   0 <= x2053 <= +inf
   0 <= x2057 <= +inf
   0 <= x1617 <= +inf
   0 <= x1623 <= +inf
   0 <= x2072 <= +inf
   0 <= x1633 <= +inf
   0 <= x2060 <= +inf
   0 <= x2067 <= +inf
   0 <= x1636 <= +inf
   0 <= x2064 <= +inf
   0 <= x2062 <= +inf
   0 <= x1594 <= +inf
   0 <= x2069 <= +inf
   0 <= x1629 <= +inf
   0 <= x2075 <= +inf
   0 <= x2076 <= +inf
   0 <= x1596 <= +inf
   0 <= x1631 <= +inf
   0 <= x2083 <= +inf
   0 <= x1642 <= +inf
   0 <= x2080 <= +inf
   0 <= x2085 <= +inf
   0 <= x1391 <= +inf
   0 <= x1619 <= +inf
   0 <= x1684 <= +inf
   0 <= x2087 <= +inf
   0 <= x2090 <= +inf
   0 <= x2092 <= +inf
   0 <= x1637 <= +inf
   0 <= x1626 <= +inf
   0 <= x1403 <= +inf
   0 <= x1404 <= +inf
   0 <= x1653 <= +inf
   0 <= x1645 <= +inf
   0 <= x1651 <= +inf
   0 <= x1666 <= +inf
   0 <= x1668 <= +inf
   0 <= x1681 <= +inf
   0 <= x1657 <= +inf
   0 <= x1647 <= +inf
binary
  x2
  x3
  x4
  x5
  x6
  x7
  x8
  x9
  x10
  x11
  x12
  x13
  x14
  x15
  x16
  x17
  x18
  x19
  x20
  x21
  x22
  x23
  x24
  x25
  x26
  x27
  x28
  x29
  x30
  x31
  x32
  x33
  x34
  x35
  x36
  x37
  x38
  x39
  x40
  x41
  x42
  x43
  x44
  x45
  x46
  x47
  x48
  x49
  x50
  x51
  x52
  x53
  x54
  x55
  x56
  x57
  x58
  x59
  x60
  x61
  x62
  x63
  x64
  x65
  x66
  x67
  x68
  x69
  x70
  x71
  x72
  x73
  x74
  x75
  x76
  x77
  x78
  x79
  x80
  x81
  x82
  x83
  x84
  x85
  x86
  x87
  x88
  x89
  x90
  x91
  x92
  x93
  x94
  x95
  x96
  x97
  x98
  x99
  x100
  x101
  x102
  x103
  x104
  x105
  x106
  x107
  x108
  x109
  x110
  x111
  x112
  x113
  x114
  x115
  x116
  x117
  x118
  x119
  x120
  x121
  x122
  x123
  x124
  x125
  x126
  x127
  x128
  x129
  x130
  x131
  x132
  x133
  x134
  x135
  x136
  x137
  x138
  x139
  x140
  x141
  x142
  x143
  x144
  x145
  x146
  x147
  x148
  x149
  x150
  x151
  x152
  x153
  x154
  x155
  x156
  x157
  x158
  x159
  x160
  x161
  x162
  x163
  x164
  x165
  x166
  x167
  x168
  x169
  x170
  x171
  x172
  x173
  x174
  x175
  x176
  x177
  x178
  x179
  x180
  x181
  x182
  x183
  x184
  x185
  x186
  x187
  x188
  x189
  x190
end
